This file is generated by VASPKIT code  
   1.00000000000000     
    17.3823947905999994    0.0000000000000000    0.0000000000000000
     0.0000000000000000   18.2475891113000017    0.0000000000000000
     0.0000000000000000    0.0000000000000000   37.9220275878999971
   Cs   Pb   I 
    24    32    92
Direct
  0.5020171611139727  0.4770551866678573  0.4092933780274055
  0.5020171611139727  0.4770551866678573  0.7573732787184621
  0.5020171611139727  0.9770551568748791  0.4092933780274055
  0.5020171611139727  0.9770551568748791  0.7573732787184621
  0.9735246023632366  0.4689880126682241  0.4125821737641714
  0.9735246023632366  0.4689880126682241  0.7540844829816966
  0.9735246023632366  0.9689879828752450  0.4125821737641714
  0.9735246023632366  0.9689879828752450  0.7540844829816966
  0.0030270440364824  0.0351457738348923  0.5833333134607557
  0.0030270440364824  0.5351457700727534  0.5833333134607557
  0.5227350526359859  0.0345260637584224  0.5833333134607557
  0.5227350526359859  0.5345260599962832  0.5833333134607557
  0.2344826209971089  0.2882263675574985  0.5833333134607557
  0.2344826209971089  0.7882263675766760  0.5833333134607557
  0.7353244280529763  0.2868945645367912  0.5833333134607557
  0.7353244280529763  0.7868945645559688  0.5833333134607557
  0.2652360713000951  0.2198623916924428  0.4124271418966940
  0.2652360713000951  0.2198623916924428  0.7542395148491738
  0.2652360713000951  0.7198624066176986  0.4124271418966940
  0.2652360713000951  0.7198624066176986  0.7542395148491738
  0.7621388572395150  0.2165355406447450  0.4118758335089542
  0.7621388572395150  0.2165355406447450  0.7547908232369133
  0.7621388572395150  0.7165355555700007  0.4118758335089542
  0.7621388572395150  0.7165355555700007  0.7547908232369133
  0.2410219757273603 -0.0044621705899520  0.3397144347625254
  0.2511941851259639  0.0022003653542720  0.6650603259062997
  0.2410219757273603  0.4955378294292253  0.3397144347625254
  0.2511941851259639  0.5022003653734496  0.6650603259062997
  0.7527078652632897 -0.0097985311842744  0.3207152011648395
  0.7488838407749788  0.0016591424116077  0.6685926541521106
  0.7527078652632897  0.4902014688349031  0.3207152011648395
  0.7488838407749788  0.5016591424307852  0.6685926541521106
  0.0068615322911908  0.2440431697317706  0.3372283351218177
 -0.0016212254272995  0.2520606705898559  0.6654871750879736
  0.0068615322911908  0.7440431696961440  0.3372283351218177
 -0.0016212254272995  0.7520606705542294  0.6654871750879736
  0.5090184277869794  0.2455742986623941  0.3372591464094881
  0.4962140043218691  0.2514726640137461  0.6656448811693263
  0.5090184277869794  0.7455742986267681  0.3372591464094881
  0.4962140043218691  0.7514726639781192  0.6656448811693263
  0.2511941851259639  0.0022003653542720  0.5016063606375631
  0.2410219757273603 -0.0044621705899520  0.8269522219569740
  0.2511941851259639  0.5022003653734496  0.5016063606375631
  0.2410219757273603  0.4955378294292253  0.8269522219569740
  0.7488838407749788  0.0016591424116077  0.4980740323917527
  0.7527078652632897 -0.0097985311842744  0.8459514555546600
  0.7488838407749788  0.5016591424307852  0.4980740323917527
  0.7527078652632897  0.4902014688349031  0.8459514555546600
 -0.0016212254272995  0.2520606705898559  0.5011795114558892
  0.0068615322911908  0.2440431697317706  0.8294383215976819
 -0.0016212254272995  0.7520606705542294  0.5011795114558892
  0.0068615322911908  0.7440431696961440  0.8294383215976819
  0.4962140043218691  0.2514726640137461  0.5010218053745366
  0.5090184277869794  0.2455742986623941  0.8294075103100107
  0.4962140043218691  0.7514726639781192  0.5010218053745366
  0.5090184277869794  0.7455742986267681  0.8294075103100107
  0.0404294470950284  0.2571086261086818  0.4163473541878560
  0.0404294470950284  0.2571086261086818  0.7503193025580115
  0.0404294470950284  0.7571086260730626  0.4163473541878560
  0.0404294470950284  0.7571086260730626  0.7503193025580115
  0.5379861439690737  0.2586806189195059  0.4165722225496371
  0.5379861439690737  0.2586806189195059  0.7500944341962305
  0.5379861439690737  0.7586806188838863  0.4165722225496371
  0.5379861439690737  0.7586806188838863  0.7500944341962305
  0.4558969525403622  0.2407548544784002  0.5833333134607557
  0.4558969525403622  0.7407548694036631  0.5833333134607557
  0.9580271809848976  0.2474248853197380  0.5833333134607557
  0.9580271809848976  0.7474249002450010  0.5833333134607557
  0.2980779364872531  0.4954236365410710  0.5833333134607557
  0.2980779364872531  0.9954236365054510  0.5833333134607557
  0.7798769435969976  0.4912630996139712  0.2462502109069896
  0.7813352096132924  0.4962833299773112  0.5833333134607557
  0.7798769435969976  0.4912630996139712  0.9204164756368659
  0.7798769435969976  0.9912630995783518  0.2462502109069896
  0.7813352096132924  0.9962833299416920  0.5833333134607557
  0.7798769435969976  0.9912630995783518  0.9204164756368659
  0.2002700911490342  0.0090949167037093  0.4177935868866235
  0.2002700911490342  0.0090949167037093  0.7488730698592444
  0.2002700911490342  0.5090949136539891  0.4177935868866235
  0.2002700911490342  0.5090949136539891  0.7488730698592444
  0.7250630323967329  0.0031776255547676  0.4169954866865132
  0.7250630323967329  0.0031776255547676  0.7496711700593540
  0.7250630323967329  0.5031776225050469  0.4169954866865132
  0.7250630323967329  0.5031776225050469  0.7496711700593540
  0.3927752122974015  0.1099565755183373  0.3434146519961767
  0.4005192148057968  0.1005399067805343  0.6829025411584222
  0.3927752122974015  0.6099565457253588  0.3434146519961767
  0.4005192148057968  0.6005398769875553  0.6829025411584222
  0.8963092675322966  0.1092003769059836  0.3429257063735845
  0.9017503700574147  0.1026884098004210  0.6786855297428019
  0.8963092675322966  0.6092003471130047  0.3429257063735845
  0.9017503700574147  0.6026883800074421  0.6786855297428019
  0.0998098782284383  0.3989344551418703  0.3226342272522303
  0.0980776328850390  0.4009258871961077  0.6523111735679072
  0.0998098782284382  0.8989345445427194  0.3226342272522303
  0.0980776328850390  0.9009259765969577  0.6523111735679072
  0.6020250080740497  0.3937819517797320  0.3222323022809622
  0.5969523258745021  0.3979357402820907  0.6547375011102590
  0.6020250080740497  0.8937820411805814  0.3222323022809622
  0.5969523258745021  0.8979358296829396  0.6547375011102590
  0.1521845102334427  0.1498230334105740  0.3219954892812368
  0.1503605161097908  0.1490655798294658  0.6518443407232437
  0.1521845102334427  0.6498230632419150  0.3219954892812368
  0.1503605161097908  0.6490656096608068  0.6518443407232437
  0.6452227901162766  0.1427282221419951  0.3261168228737857
  0.6485272973590447  0.1505990432162171  0.6545720726277703
  0.6452227901162766  0.6427282519733363  0.3261168228737857
  0.6485272973590447  0.6505990730475584  0.6545720726277703
  0.3560836533094200  0.3622701770343642  0.3462108831949017
  0.3452870899874557  0.3509274211630866  0.6800628881591589
  0.3560836533094199  0.8622701472413927  0.3462108831949017
  0.3452870899874557  0.8509273913701147  0.6800628881591589
  0.8568825442510032  0.3538411988218139  0.3421732540275367
  0.8476959645796137  0.3489351852183061  0.6797425109874836
  0.8568825442510032  0.8538411690288420  0.3421732540275367
  0.8476959645796137  0.8489351554253352  0.6797425109874836
  0.0980776328850390  0.4009258871961077  0.5143555129759556
  0.0998098782284382  0.3989344551418703  0.8440323996692883
  0.0980776328850390  0.9009259765969577  0.5143555129759556
  0.0998098782284382  0.8989345445427194  0.8440323996692883
  0.5969523258745021  0.3979357402820907  0.5119291854336039
  0.6020250080740497  0.3937819517797320  0.8444343246405562
  0.5969523258745021  0.8979358296829396  0.5119291854336039
  0.6020250080740497  0.8937820411805814  0.8444343246405562
  0.4005192148057968  0.1005399067805343  0.4837641453854404
  0.3927752122974015  0.1099565755183373  0.8232520047233228
  0.4005192148057968  0.6005398769875553  0.4837641453854404
  0.3927752122974015  0.6099565457253588  0.8232520047233228
  0.9017503700574147  0.1026884098004210  0.4879811568010609
  0.8963092675322966  0.1092003769059836  0.8237409503459153
  0.9017503700574147  0.6026883800074421  0.4879811568010609
  0.8963092675322966  0.6092003471130047  0.8237409503459153
  0.3452870899874557  0.3509274211630866  0.4866037983847041
  0.3560836533094200  0.3622701770343642  0.8204557735245980
  0.3452870899874557  0.8509273913701147  0.4866037983847041
  0.3560836533094199  0.8622701472413927  0.8204557735245980
  0.8476959645796137  0.3489351852183061  0.4869241755563787
  0.8568825442510032  0.3538411988218139  0.8244934026919624
  0.8476959645796137  0.8489351554253352  0.4869241755563787
  0.8568825442510032  0.8538411690288420  0.8244934026919624
  0.1503605161097908  0.1490655798294658  0.5148223458206191
  0.1521845102334427  0.1498230334105740  0.8446711376402819
  0.1503605161097908  0.6490656096608068  0.5148223458206191
  0.1521845102334427  0.6498230632419150  0.8446711376402819
  0.6485272973590447  0.1505990432162171  0.5120946139160926
  0.6452227901162766  0.1427282221419951  0.8405498040477325
  0.6485272973590447  0.6505990730475584  0.5120946139160926
  0.6452227901162766  0.6427282519733363  0.8405498040477325
 
  0.00000000E+00  0.00000000E+00  0.00000000E+00
  0.00000000E+00  0.00000000E+00  0.00000000E+00
  0.00000000E+00  0.00000000E+00  0.00000000E+00
  0.00000000E+00  0.00000000E+00  0.00000000E+00
  0.00000000E+00  0.00000000E+00  0.00000000E+00
  0.00000000E+00  0.00000000E+00  0.00000000E+00
  0.00000000E+00  0.00000000E+00  0.00000000E+00
  0.00000000E+00  0.00000000E+00  0.00000000E+00
  0.00000000E+00  0.00000000E+00  0.00000000E+00
  0.00000000E+00  0.00000000E+00  0.00000000E+00
  0.00000000E+00  0.00000000E+00  0.00000000E+00
  0.00000000E+00  0.00000000E+00  0.00000000E+00
  0.00000000E+00  0.00000000E+00  0.00000000E+00
  0.00000000E+00  0.00000000E+00  0.00000000E+00
  0.00000000E+00  0.00000000E+00  0.00000000E+00
  0.00000000E+00  0.00000000E+00  0.00000000E+00
  0.00000000E+00  0.00000000E+00  0.00000000E+00
  0.00000000E+00  0.00000000E+00  0.00000000E+00
  0.00000000E+00  0.00000000E+00  0.00000000E+00
  0.00000000E+00  0.00000000E+00  0.00000000E+00
  0.00000000E+00  0.00000000E+00  0.00000000E+00
  0.00000000E+00  0.00000000E+00  0.00000000E+00
  0.00000000E+00  0.00000000E+00  0.00000000E+00
  0.00000000E+00  0.00000000E+00  0.00000000E+00
  0.00000000E+00  0.00000000E+00  0.00000000E+00
  0.00000000E+00  0.00000000E+00  0.00000000E+00
  0.00000000E+00  0.00000000E+00  0.00000000E+00
  0.00000000E+00  0.00000000E+00  0.00000000E+00
  0.00000000E+00  0.00000000E+00  0.00000000E+00
  0.00000000E+00  0.00000000E+00  0.00000000E+00
  0.00000000E+00  0.00000000E+00  0.00000000E+00
  0.00000000E+00  0.00000000E+00  0.00000000E+00
  0.00000000E+00  0.00000000E+00  0.00000000E+00
  0.00000000E+00  0.00000000E+00  0.00000000E+00
  0.00000000E+00  0.00000000E+00  0.00000000E+00
  0.00000000E+00  0.00000000E+00  0.00000000E+00
  0.00000000E+00  0.00000000E+00  0.00000000E+00
  0.00000000E+00  0.00000000E+00  0.00000000E+00
  0.00000000E+00  0.00000000E+00  0.00000000E+00
  0.00000000E+00  0.00000000E+00  0.00000000E+00
  0.00000000E+00  0.00000000E+00  0.00000000E+00
  0.00000000E+00  0.00000000E+00  0.00000000E+00
  0.00000000E+00  0.00000000E+00  0.00000000E+00
  0.00000000E+00  0.00000000E+00  0.00000000E+00
  0.00000000E+00  0.00000000E+00  0.00000000E+00
  0.00000000E+00  0.00000000E+00  0.00000000E+00
  0.00000000E+00  0.00000000E+00  0.00000000E+00
  0.00000000E+00  0.00000000E+00  0.00000000E+00
  0.00000000E+00  0.00000000E+00  0.00000000E+00
  0.00000000E+00  0.00000000E+00  0.00000000E+00
  0.00000000E+00  0.00000000E+00  0.00000000E+00
  0.00000000E+00  0.00000000E+00  0.00000000E+00
  0.00000000E+00  0.00000000E+00  0.00000000E+00
  0.00000000E+00  0.00000000E+00  0.00000000E+00
  0.00000000E+00  0.00000000E+00  0.00000000E+00
  0.00000000E+00  0.00000000E+00  0.00000000E+00
  0.00000000E+00  0.00000000E+00  0.00000000E+00
  0.00000000E+00  0.00000000E+00  0.00000000E+00
  0.00000000E+00  0.00000000E+00  0.00000000E+00
  0.00000000E+00  0.00000000E+00  0.00000000E+00
  0.00000000E+00  0.00000000E+00  0.00000000E+00
  0.00000000E+00  0.00000000E+00  0.00000000E+00
  0.00000000E+00  0.00000000E+00  0.00000000E+00
  0.00000000E+00  0.00000000E+00  0.00000000E+00
  0.00000000E+00  0.00000000E+00  0.00000000E+00
  0.00000000E+00  0.00000000E+00  0.00000000E+00
  0.00000000E+00  0.00000000E+00  0.00000000E+00
  0.00000000E+00  0.00000000E+00  0.00000000E+00
  0.00000000E+00  0.00000000E+00  0.00000000E+00
  0.00000000E+00  0.00000000E+00  0.00000000E+00
  0.00000000E+00  0.00000000E+00  0.00000000E+00
  0.00000000E+00  0.00000000E+00  0.00000000E+00
  0.00000000E+00  0.00000000E+00  0.00000000E+00
  0.00000000E+00  0.00000000E+00  0.00000000E+00
  0.00000000E+00  0.00000000E+00  0.00000000E+00
  0.00000000E+00  0.00000000E+00  0.00000000E+00
  0.00000000E+00  0.00000000E+00  0.00000000E+00
  0.00000000E+00  0.00000000E+00  0.00000000E+00
  0.00000000E+00  0.00000000E+00  0.00000000E+00
  0.00000000E+00  0.00000000E+00  0.00000000E+00
  0.00000000E+00  0.00000000E+00  0.00000000E+00
  0.00000000E+00  0.00000000E+00  0.00000000E+00
  0.00000000E+00  0.00000000E+00  0.00000000E+00
  0.00000000E+00  0.00000000E+00  0.00000000E+00
  0.00000000E+00  0.00000000E+00  0.00000000E+00
  0.00000000E+00  0.00000000E+00  0.00000000E+00
  0.00000000E+00  0.00000000E+00  0.00000000E+00
  0.00000000E+00  0.00000000E+00  0.00000000E+00
  0.00000000E+00  0.00000000E+00  0.00000000E+00
  0.00000000E+00  0.00000000E+00  0.00000000E+00
  0.00000000E+00  0.00000000E+00  0.00000000E+00
  0.00000000E+00  0.00000000E+00  0.00000000E+00
  0.00000000E+00  0.00000000E+00  0.00000000E+00
  0.00000000E+00  0.00000000E+00  0.00000000E+00
  0.00000000E+00  0.00000000E+00  0.00000000E+00
  0.00000000E+00  0.00000000E+00  0.00000000E+00
  0.00000000E+00  0.00000000E+00  0.00000000E+00
  0.00000000E+00  0.00000000E+00  0.00000000E+00
  0.00000000E+00  0.00000000E+00  0.00000000E+00
  0.00000000E+00  0.00000000E+00  0.00000000E+00
  0.00000000E+00  0.00000000E+00  0.00000000E+00
  0.00000000E+00  0.00000000E+00  0.00000000E+00
  0.00000000E+00  0.00000000E+00  0.00000000E+00
  0.00000000E+00  0.00000000E+00  0.00000000E+00
  0.00000000E+00  0.00000000E+00  0.00000000E+00
  0.00000000E+00  0.00000000E+00  0.00000000E+00
  0.00000000E+00  0.00000000E+00  0.00000000E+00
  0.00000000E+00  0.00000000E+00  0.00000000E+00
  0.00000000E+00  0.00000000E+00  0.00000000E+00
  0.00000000E+00  0.00000000E+00  0.00000000E+00
  0.00000000E+00  0.00000000E+00  0.00000000E+00
  0.00000000E+00  0.00000000E+00  0.00000000E+00
  0.00000000E+00  0.00000000E+00  0.00000000E+00
  0.00000000E+00  0.00000000E+00  0.00000000E+00
  0.00000000E+00  0.00000000E+00  0.00000000E+00
  0.00000000E+00  0.00000000E+00  0.00000000E+00
  0.00000000E+00  0.00000000E+00  0.00000000E+00
  0.00000000E+00  0.00000000E+00  0.00000000E+00
  0.00000000E+00  0.00000000E+00  0.00000000E+00
  0.00000000E+00  0.00000000E+00  0.00000000E+00
  0.00000000E+00  0.00000000E+00  0.00000000E+00
  0.00000000E+00  0.00000000E+00  0.00000000E+00
  0.00000000E+00  0.00000000E+00  0.00000000E+00
  0.00000000E+00  0.00000000E+00  0.00000000E+00
  0.00000000E+00  0.00000000E+00  0.00000000E+00
  0.00000000E+00  0.00000000E+00  0.00000000E+00
  0.00000000E+00  0.00000000E+00  0.00000000E+00
  0.00000000E+00  0.00000000E+00  0.00000000E+00
  0.00000000E+00  0.00000000E+00  0.00000000E+00
  0.00000000E+00  0.00000000E+00  0.00000000E+00
  0.00000000E+00  0.00000000E+00  0.00000000E+00
  0.00000000E+00  0.00000000E+00  0.00000000E+00
  0.00000000E+00  0.00000000E+00  0.00000000E+00
  0.00000000E+00  0.00000000E+00  0.00000000E+00
  0.00000000E+00  0.00000000E+00  0.00000000E+00
  0.00000000E+00  0.00000000E+00  0.00000000E+00
  0.00000000E+00  0.00000000E+00  0.00000000E+00
  0.00000000E+00  0.00000000E+00  0.00000000E+00
  0.00000000E+00  0.00000000E+00  0.00000000E+00
  0.00000000E+00  0.00000000E+00  0.00000000E+00
  0.00000000E+00  0.00000000E+00  0.00000000E+00
  0.00000000E+00  0.00000000E+00  0.00000000E+00
  0.00000000E+00  0.00000000E+00  0.00000000E+00
  0.00000000E+00  0.00000000E+00  0.00000000E+00
  0.00000000E+00  0.00000000E+00  0.00000000E+00
  0.00000000E+00  0.00000000E+00  0.00000000E+00
  0.00000000E+00  0.00000000E+00  0.00000000E+00
  0.00000000E+00  0.00000000E+00  0.00000000E+00
