This file is generated by VASPKIT code  
   1.00000000000000     
    12.6406764983999995    0.0000000000000000    0.0000000000000000
     0.0000000000000000   18.2475891113000017    0.0000000000000000
     0.0000000000000000    0.0000000000000000   50.0000000000000000
   Cs   Pb   I 
    24    24    72
Direct
  0.2500000000316405  0.4931751832984376  0.6942216270373317
  0.2500000000316405  0.9549788276742747  0.6938447640240398
  0.2500000000316405  0.4433023723444247  0.3472476619882716
  0.2500000000316405  0.0062200118346031  0.3411407071025265
  0.2500000000316405  0.4624247132743490  0.5173877310816276
  0.2500000000316405  0.9659334262696502  0.5184498627977452
  0.7500000000158238  0.0340665197341820  0.5244937936422569
  0.7500000000158238  0.5375752568970529  0.5255559253583745
  0.7500000000158238 -0.0062200658307704  0.7018029493374752
  0.7500000000158238  0.5566975978269768  0.6956959944517306
  0.7500000000158238  0.0450211183295575  0.3490988328159644
  0.7500000000158238  0.5068247868729643  0.3487219698026725
  0.7500000000158238  0.2827459217156081  0.6074401348270562
  0.7500000000158238  0.7856583341502708  0.6047463370689969
  0.7500000000158238  0.2814465741219869  0.7629228905414307
  0.7500000000158238  0.7423473347240918  0.2677017920967375
  0.7500000000158238  0.2907416672764471  0.4272597825502589
  0.7500000000158238  0.7759309607205401  0.4302320178647250
  0.2500000000316405  0.2240690392630180  0.6127116385752771
  0.2500000000316405  0.7092583327071111  0.6156838738897433
  0.2500000000316405  0.2576526652594670  0.7752418643432573
  0.2500000000316405  0.7185534258615718  0.2800207658985638
  0.2500000000316405  0.2143416658332875  0.4381973193910003
  0.2500000000316405  0.7172540782679502  0.4355035216329406
 -0.0012407166319028  0.0023777110375496  0.6076091662155479
 -0.0001943510693821  0.4973907929185352  0.6091443296308228
  0.0121331476445274  0.4934086972097743  0.2653775080642186
 -0.0121331476445274  0.5065913028285810  0.7775661185757844
  0.0012407166319028 -0.0023777110375496  0.4353344604244552
  0.0001943510693821  0.5026092071198199  0.4337992970091810
 -0.0024636692304703  0.2526658284724217  0.5206143844133655
  0.0024636692304703  0.7473341715111366  0.5223292124266388
  0.0026839374916801  0.2395079517321430  0.6959989130329967
  0.0020948502778506  0.7649853916251717  0.6976434791575816
 -0.0020948502778506  0.2350146083583867  0.3453002368824182
 -0.0026839374916801  0.7604920482514151  0.3469448030070030
  0.5012407166160788  0.0023777110375496  0.6076091662155479
  0.5001943510535583  0.4973907929185352  0.6091443296308228
  0.4878668523396487  0.4934086972097743  0.2653775080642185
  0.5121331476287034  0.5065913028285810  0.7775661185757844
  0.4987592833522735 -0.0023777110375496  0.4353344604244552
  0.4998056489147939  0.5026092071198199  0.4337992970091810
  0.5024636692146464  0.2526658284724217  0.5206143844133655
  0.4975363307537059  0.7473341715111367  0.5223292124266388
  0.4973160624924962  0.2395079517321430  0.6959989130329967
  0.4979051497063253  0.7649853916251717  0.6976434791575816
  0.5020948502620269  0.2350146083583867  0.3453002368824182
  0.5026839374758562  0.7604920482514151  0.3469448030070030
  0.2500000000316405  0.2517728201879615  0.5344141614502792
  0.2500000000316405  0.7595002008344717  0.5386540560090501
  0.2500000000316405  0.2791238947732144  0.7014987192970146
  0.2500000000316405  0.7328031119208619  0.7053166923718408
  0.2500000000316405  0.2305312676667640  0.3596563404964504
  0.2500000000316405  0.7823432706633957  0.3554722850422270
  0.7500000000158238  0.2176567293201621  0.6874713713977684
  0.7500000000158238  0.7694687323715985  0.6832873159435447
  0.7500000000158238  0.2671968880626960  0.3376269938681602
  0.7500000000158238  0.7208761052651473  0.3414449669429862
  0.7500000000158238  0.2404997991490863  0.5042896004509537
  0.7500000000158238  0.7482271798504007  0.5085294950097247
  0.7500000000158238  0.4945319079963230  0.6210585120402032
  0.7500000000158238  0.9961440069719805  0.6238967951885458
  0.7500000000158238  0.5259865010537984  0.2638398925433555
  0.7500000000158238  0.4710231818187327  0.7998083771353696
  0.7500000000158238  0.5007021796875073  0.4474030853861607
  0.7500000000158238  0.9869524778482609  0.4478378137876539
  0.2500000000316405  0.0130475849929129  0.5951058426723497
  0.2500000000316405  0.4992978202960504  0.5955405710738436
  0.2500000000316405  0.5289768181648252  0.2431352495046338
  0.2500000000316405  0.4740134989297597  0.7791037042966411
  0.2500000000316405  0.0038560558691934  0.4190468910514477
  0.2500000000316405  0.5054680919872345  0.4218851741997908
  0.0479369949739599  0.0984937558178307  0.6639567152693866
  0.0257489552258349  0.6002548108550733  0.6594215842461923
  0.0031897794857271  0.1013099479233784  0.3098536594224880
  0.0394373944843138  0.5867279921145554  0.3147605054414437
  0.0398754190932501  0.0980007777941978  0.4857966752648502
  0.0425839240579198  0.6038747418594094  0.4883096806382110
  0.9574160349316212  0.3961252879363045  0.5546339758017840
  0.9601245398962903  0.9019991923772043  0.5571469811751446
  0.9605625645052274  0.4132720376811592  0.7281830913985609
  0.9968101795038136  0.8986900222480235  0.7330899374175164
  0.9742510037637063  0.3997452189406414  0.3835221020138109
  0.9520629640155809  0.9015062143535710  0.3789869709906162
  0.9579303515982530  0.1490563662404497  0.5742726099848546
  0.9602590927560386  0.6497855814029161  0.5741289664046122
  0.9963414535165681  0.1651256843720698  0.7527921730078088
  0.9484775904123249  0.6500199968151431  0.7520395396805698
  0.9573102460918540  0.1473521239081100  0.3991487455944279
  0.9781921022033471  0.6508015062561766  0.4002049793318004
  0.0218078567861939  0.3491984639152251  0.6427386473082028
  0.0426897128976870  0.8526479058876044  0.6437948810455751
  0.0515223685772161  0.3499799733562584  0.2909041465794260
  0.0036585054729730  0.8348743454236445  0.2901515132521875
  0.0397408662335024  0.3502143887684857  0.4688146900353897
  0.0420696073912880  0.8509436635552643  0.4686710464551478
  0.5425839054513208  0.3961252879363045  0.5546339758017840
  0.5398754004866517  0.9019991923772043  0.5571469811751446
  0.5394373758777147  0.4132720376811592  0.7281830913985609
  0.5031897608791285  0.8986900222480235  0.7330899374175164
  0.5257489366192357  0.3997452189406414  0.3835221020138109
  0.5479369763673612  0.9015062143535710  0.3789869709906162
  0.4520630236801033  0.0984937558178307  0.6639567152693866
  0.4742510634282281  0.6002548108550733  0.6594215842461923
  0.4968102391683359  0.1013099479233784  0.3098536594224880
  0.4605626241697492  0.5867279921145554  0.3147605054414437
  0.4601245995608129  0.0980007777941978  0.4857966752648502
  0.4574160945961435  0.6038747418594094  0.4883096806382110
  0.4781921618678693  0.3491984639152251  0.6427386473082028
  0.4573103057563761  0.8526479058876044  0.6437948810455751
  0.4484776500768470  0.3499799733562584  0.2909041465794260
  0.4963415131810903  0.8348743454236445  0.2901515132521875
  0.4602591524205609  0.3502143887684857  0.4688146900353897
  0.4579304112627755  0.8509436635552643  0.4686710464551478
  0.5420695887846890  0.1490563662404497  0.5742726099848546
  0.5397408476269034  0.6497855814029161  0.5741289664046122
  0.5036584868663739  0.1651256843720698  0.7527921730078088
  0.5515223499706171  0.6500199968151431  0.7520395396805698
  0.5426896942910880  0.1473521239081100  0.3991487455944279
  0.5218078381795950  0.6508015062561766  0.4002049793318004
 
  0.00000000E+00  0.00000000E+00  0.00000000E+00
  0.00000000E+00  0.00000000E+00  0.00000000E+00
  0.00000000E+00  0.00000000E+00  0.00000000E+00
  0.00000000E+00  0.00000000E+00  0.00000000E+00
  0.00000000E+00  0.00000000E+00  0.00000000E+00
  0.00000000E+00  0.00000000E+00  0.00000000E+00
  0.00000000E+00  0.00000000E+00  0.00000000E+00
  0.00000000E+00  0.00000000E+00  0.00000000E+00
  0.00000000E+00  0.00000000E+00  0.00000000E+00
  0.00000000E+00  0.00000000E+00  0.00000000E+00
  0.00000000E+00  0.00000000E+00  0.00000000E+00
  0.00000000E+00  0.00000000E+00  0.00000000E+00
  0.00000000E+00  0.00000000E+00  0.00000000E+00
  0.00000000E+00  0.00000000E+00  0.00000000E+00
  0.00000000E+00  0.00000000E+00  0.00000000E+00
  0.00000000E+00  0.00000000E+00  0.00000000E+00
  0.00000000E+00  0.00000000E+00  0.00000000E+00
  0.00000000E+00  0.00000000E+00  0.00000000E+00
  0.00000000E+00  0.00000000E+00  0.00000000E+00
  0.00000000E+00  0.00000000E+00  0.00000000E+00
  0.00000000E+00  0.00000000E+00  0.00000000E+00
  0.00000000E+00  0.00000000E+00  0.00000000E+00
  0.00000000E+00  0.00000000E+00  0.00000000E+00
  0.00000000E+00  0.00000000E+00  0.00000000E+00
  0.00000000E+00  0.00000000E+00  0.00000000E+00
  0.00000000E+00  0.00000000E+00  0.00000000E+00
  0.00000000E+00  0.00000000E+00  0.00000000E+00
  0.00000000E+00  0.00000000E+00  0.00000000E+00
  0.00000000E+00  0.00000000E+00  0.00000000E+00
  0.00000000E+00  0.00000000E+00  0.00000000E+00
  0.00000000E+00  0.00000000E+00  0.00000000E+00
  0.00000000E+00  0.00000000E+00  0.00000000E+00
  0.00000000E+00  0.00000000E+00  0.00000000E+00
  0.00000000E+00  0.00000000E+00  0.00000000E+00
  0.00000000E+00  0.00000000E+00  0.00000000E+00
  0.00000000E+00  0.00000000E+00  0.00000000E+00
  0.00000000E+00  0.00000000E+00  0.00000000E+00
  0.00000000E+00  0.00000000E+00  0.00000000E+00
  0.00000000E+00  0.00000000E+00  0.00000000E+00
  0.00000000E+00  0.00000000E+00  0.00000000E+00
  0.00000000E+00  0.00000000E+00  0.00000000E+00
  0.00000000E+00  0.00000000E+00  0.00000000E+00
  0.00000000E+00  0.00000000E+00  0.00000000E+00
  0.00000000E+00  0.00000000E+00  0.00000000E+00
  0.00000000E+00  0.00000000E+00  0.00000000E+00
  0.00000000E+00  0.00000000E+00  0.00000000E+00
  0.00000000E+00  0.00000000E+00  0.00000000E+00
  0.00000000E+00  0.00000000E+00  0.00000000E+00
  0.00000000E+00  0.00000000E+00  0.00000000E+00
  0.00000000E+00  0.00000000E+00  0.00000000E+00
  0.00000000E+00  0.00000000E+00  0.00000000E+00
  0.00000000E+00  0.00000000E+00  0.00000000E+00
  0.00000000E+00  0.00000000E+00  0.00000000E+00
  0.00000000E+00  0.00000000E+00  0.00000000E+00
  0.00000000E+00  0.00000000E+00  0.00000000E+00
  0.00000000E+00  0.00000000E+00  0.00000000E+00
  0.00000000E+00  0.00000000E+00  0.00000000E+00
  0.00000000E+00  0.00000000E+00  0.00000000E+00
  0.00000000E+00  0.00000000E+00  0.00000000E+00
  0.00000000E+00  0.00000000E+00  0.00000000E+00
  0.00000000E+00  0.00000000E+00  0.00000000E+00
  0.00000000E+00  0.00000000E+00  0.00000000E+00
  0.00000000E+00  0.00000000E+00  0.00000000E+00
  0.00000000E+00  0.00000000E+00  0.00000000E+00
  0.00000000E+00  0.00000000E+00  0.00000000E+00
  0.00000000E+00  0.00000000E+00  0.00000000E+00
  0.00000000E+00  0.00000000E+00  0.00000000E+00
  0.00000000E+00  0.00000000E+00  0.00000000E+00
  0.00000000E+00  0.00000000E+00  0.00000000E+00
  0.00000000E+00  0.00000000E+00  0.00000000E+00
  0.00000000E+00  0.00000000E+00  0.00000000E+00
  0.00000000E+00  0.00000000E+00  0.00000000E+00
  0.00000000E+00  0.00000000E+00  0.00000000E+00
  0.00000000E+00  0.00000000E+00  0.00000000E+00
  0.00000000E+00  0.00000000E+00  0.00000000E+00
  0.00000000E+00  0.00000000E+00  0.00000000E+00
  0.00000000E+00  0.00000000E+00  0.00000000E+00
  0.00000000E+00  0.00000000E+00  0.00000000E+00
  0.00000000E+00  0.00000000E+00  0.00000000E+00
  0.00000000E+00  0.00000000E+00  0.00000000E+00
  0.00000000E+00  0.00000000E+00  0.00000000E+00
  0.00000000E+00  0.00000000E+00  0.00000000E+00
  0.00000000E+00  0.00000000E+00  0.00000000E+00
  0.00000000E+00  0.00000000E+00  0.00000000E+00
  0.00000000E+00  0.00000000E+00  0.00000000E+00
  0.00000000E+00  0.00000000E+00  0.00000000E+00
  0.00000000E+00  0.00000000E+00  0.00000000E+00
  0.00000000E+00  0.00000000E+00  0.00000000E+00
  0.00000000E+00  0.00000000E+00  0.00000000E+00
  0.00000000E+00  0.00000000E+00  0.00000000E+00
  0.00000000E+00  0.00000000E+00  0.00000000E+00
  0.00000000E+00  0.00000000E+00  0.00000000E+00
  0.00000000E+00  0.00000000E+00  0.00000000E+00
  0.00000000E+00  0.00000000E+00  0.00000000E+00
  0.00000000E+00  0.00000000E+00  0.00000000E+00
  0.00000000E+00  0.00000000E+00  0.00000000E+00
  0.00000000E+00  0.00000000E+00  0.00000000E+00
  0.00000000E+00  0.00000000E+00  0.00000000E+00
  0.00000000E+00  0.00000000E+00  0.00000000E+00
  0.00000000E+00  0.00000000E+00  0.00000000E+00
  0.00000000E+00  0.00000000E+00  0.00000000E+00
  0.00000000E+00  0.00000000E+00  0.00000000E+00
  0.00000000E+00  0.00000000E+00  0.00000000E+00
  0.00000000E+00  0.00000000E+00  0.00000000E+00
  0.00000000E+00  0.00000000E+00  0.00000000E+00
  0.00000000E+00  0.00000000E+00  0.00000000E+00
  0.00000000E+00  0.00000000E+00  0.00000000E+00
  0.00000000E+00  0.00000000E+00  0.00000000E+00
  0.00000000E+00  0.00000000E+00  0.00000000E+00
  0.00000000E+00  0.00000000E+00  0.00000000E+00
  0.00000000E+00  0.00000000E+00  0.00000000E+00
  0.00000000E+00  0.00000000E+00  0.00000000E+00
  0.00000000E+00  0.00000000E+00  0.00000000E+00
  0.00000000E+00  0.00000000E+00  0.00000000E+00
  0.00000000E+00  0.00000000E+00  0.00000000E+00
  0.00000000E+00  0.00000000E+00  0.00000000E+00
  0.00000000E+00  0.00000000E+00  0.00000000E+00
  0.00000000E+00  0.00000000E+00  0.00000000E+00
  0.00000000E+00  0.00000000E+00  0.00000000E+00
  0.00000000E+00  0.00000000E+00  0.00000000E+00
