This file is generated by VASPKIT code  
   1.00000000000000     
    17.3823947905999994    0.0000000000000000    0.0000000000000000
     0.0000000000000000   18.2475891113000017    0.0000000000000000
     0.0000000000000000    0.0000000000000000   40.0000000000000000
   Cs   Pb   I 
    24    28    88
Direct
  0.4831812633135678  0.4750313252872085  0.3910044113841518
  0.4831812633135678  0.4750313252872085  0.7150547822158450
  0.4831812633135678  0.9750313253063936  0.3910044113841518
  0.4831812633135678  0.9750313253063936  0.7150547822158450
  0.9954290050814791  0.4704694227485369  0.3883764186435121
  0.9954290050814791  0.4704694227485369  0.7176827749564846
  0.9954290050814791  0.9704694227677214  0.3883764186435121
  0.9954290050814791  0.9704694227677214  0.7176827749564846
  0.0246979155745060  0.0360895342546247  0.5530295968000019
  0.0246979155745060  0.5360895304924856  0.5530295968000019
  0.5075459768032241  0.0394045322709519  0.5530295968000019
  0.5075459768032241  0.5394045285088130  0.5530295968000019
  0.2165574719510295  0.2832041521334056  0.5530295968000019
  0.2165574719510295  0.7832041521525834  0.5530295968000019
  0.7505713260262157  0.2844578823737753  0.5530295968000019
  0.7505713260262157  0.7844578823929528  0.5530295968000019
  0.2317079134595422  0.2385768187064588  0.3777084786223871
  0.2317079134595422  0.2385768187064588  0.7283507149776096
  0.2317079134595422  0.7385768187256369  0.3777084786223871
  0.2317079134595422  0.7385768187256369  0.7283507149776096
  0.7808924783790905  0.2181880689740553  0.3895578326146453
  0.7808924783790905  0.2181880689740553  0.7165013609853518
  0.7808924783790905  0.7181880689932326  0.3895578326146453
  0.7808924783790905  0.7181880689932326  0.7165013609853518
  0.2411335539859945 -0.0069660572525059  0.3198961885226801
  0.2550899959522015  0.0016197043723369  0.6319367682373290
  0.2411335539859945  0.4930339427666722  0.3198961885226801
  0.2550899959522015  0.5016197043915147  0.6319367682373290
  0.7479401565892855 -0.0042855179137718  0.3231938682921258
  0.7511145491864702  0.0035298176170764  0.6292859695950197
  0.7479401565892855  0.4957144821054056  0.3231938682921258
  0.7511145491864702  0.5035298176362539  0.6292859695950197
 -0.0022604019356985  0.2523093055966251  0.6352103694682122
 -0.0022604019356985  0.7523093055609987  0.6352103694682122
  0.5112713147059893  0.2465992553143785  0.3231587777219212
  0.4962926655818710  0.2544944002205585  0.6298852954971393
  0.5112713147059893  0.7465992552787513  0.3231587777219212
  0.4962926655818710  0.7544944001849312  0.6298852954971393
  0.2550899959522015  0.0016197043723369  0.4741223955876726
  0.2411335539859945 -0.0069660572525059  0.7861630050773233
  0.2550899959522015  0.5016197043915147  0.4741223955876726
  0.2411335539859945  0.4930339427666722  0.7861630050773233
  0.7511145491864702  0.0035298176170764  0.4767731942299821
  0.7479401565892855 -0.0042855179137718  0.7828653253078778
  0.7511145491864702  0.5035298176362539  0.4767731942299821
  0.7479401565892855  0.4957144821054056  0.7828653253078778
 -0.0022604019356985  0.2523093055966251  0.4708487943567894
 -0.0022604019356985  0.7523093055609987  0.4708487943567894
  0.4962926655818710  0.2544944002205585  0.4761738683278626
  0.5112713147059893  0.2465992553143785  0.7829004158780826
  0.4962926655818710  0.7544944001849312  0.4761738683278626
  0.5112713147059893  0.7465992552787513  0.7829004158780826
  0.0108344690514152  0.2522528470918128  0.3939024474262518
  0.0108344690514152  0.2522528470918128  0.7121567461737446
  0.0108344690514152  0.7522528470561930  0.3939024474262518
  0.0108344690514152  0.7522528470561930  0.7121567461737446
  0.5529287478270142  0.2607917037683220  0.3967996563968009
  0.5529287478270142  0.2607917037683220  0.7092595372031958
  0.5529287478270142  0.7607917037327024  0.3967996563968009
  0.5529287478270142  0.7607917037327024  0.7092595372031958
  0.4437850953554906  0.2505913975377004  0.5530295968000019
  0.4437850953554906  0.7505913975568853  0.5530295968000019
  0.9749833745307289  0.2460367528633279  0.5530295968000019
  0.9749833745307289  0.7460367528825120  0.5530295968000019
  0.2846243568685467  0.4886882532716521  0.5530295968000019
  0.2846243568685467  0.9886882532360329  0.5530295968000019
  0.8009019838732646  0.4968605036310450  0.5530295968000019
  0.8009019838732646  0.9968605035954256  0.5530295968000019
  0.2206299476284669  0.0196417410116835  0.3951682120635009
  0.2206299476284669  0.0196417410116835  0.7108909815364954
  0.2206299476284669  0.5196417379619633  0.3951682120635009
  0.2206299476284669  0.5196417379619633  0.7108909815364954
  0.7065558339439839  0.0101804307610999  0.3965406941251385
  0.7065558339439839  0.0101804307610999  0.7095184994748580
  0.7065558339439839  0.5101804277113795  0.3965406941251385
  0.7065558339439839  0.5101804277113795  0.7095184994748580
  0.3895976535707362  0.1224208757895325  0.3264592700853010
  0.4083905375553242  0.0982630457334569  0.6414528197168412
  0.3895976535707362  0.6224208459965533  0.3264592700853010
  0.4083905375553242  0.5982630159404784  0.6414528197168412
  0.8865153006961637  0.0937352550834065  0.3205514266882359
  0.9016783884186126  0.0969813071077560  0.6450373725487081
  0.8865153006961637  0.5937352252904277  0.3205514266882359
  0.9016783884186126  0.5969812773147770  0.6450373725487081
  0.1214759506291777  0.3778565539924403  0.3166929515666896
  0.0999697480210750  0.4007250553390665  0.6245744544344739
  0.1214759506291776  0.8778565838237810  0.3166929515666896
  0.0999697480210750  0.9007250851704072  0.6245744544344739
  0.6088847913669577  0.3953982370472634  0.3052214178445799
  0.5983217091232452  0.3995856932726193  0.6166206141184002
  0.6088847913669577  0.8953982668786044  0.3052214178445799
  0.5983217091232452  0.8995857231039597  0.6166206141184002
  0.1369147572860034  0.1166827221995817  0.3027453543898994
  0.1522717611673142  0.1475224899309572  0.6236490204658155
  0.1369147572860034  0.6166827520309228  0.3027453543898994
  0.1522717611673142  0.6475225197622979  0.6236490204658155
  0.6452155576038958  0.1381819285150695  0.3064788058576469
  0.6499385352714262  0.1505831479883088  0.6165340851153475
  0.6452155576038958  0.6381819583464104  0.3064788058576469
  0.6499385352714262  0.6505831778196500  0.6165340851153475
  0.3739371826926282  0.3629944487770825  0.3216220365016771
  0.3476652907636961  0.3491011626467289  0.6511011807847873
  0.3739371826926282  0.8629944189841110  0.3216220365016771
  0.3476652907636961  0.8491011328537577  0.6511011807847873
  0.8512385587359056  0.3665582523674306  0.3273385261023960
  0.8434090319169042  0.3508890656535910  0.6424381566056421
  0.8512385587359056  0.8665582225744589  0.3273385261023960
  0.8434090319169042  0.8508890358606198  0.6424381566056421
  0.0999697480210750  0.4007250553390665  0.4814846795655247
  0.1214759506291777  0.3778565539924403  0.7893662122333154
  0.0999697480210750  0.9007250851704072  0.4814846795655247
  0.1214759506291776  0.8778565838237810  0.7893662122333154
  0.5983217091232452  0.3995856932726193  0.4894385198815986
  0.6088847913669577  0.3953982370472634  0.8008377459554250
  0.5983217091232452  0.8995857231039597  0.4894385198815986
  0.6088847913669577  0.8953982668786044  0.8008377459554250
  0.4083905375553242  0.0982630457334569  0.4646063440831634
  0.3895976535707362  0.1224208757895325  0.7795998639397017
  0.4083905375553242  0.5982630159404784  0.4646063440831634
  0.3895976535707362  0.6224208459965533  0.7795998639397017
  0.9016783884186126  0.0969813071077560  0.4610217912512967
  0.8865153006961637  0.0937352550834065  0.7855077073367667
  0.9016783884186126  0.5969812773147770  0.4610217912512967
  0.8865153006961637  0.5937352252904277  0.7855077073367667
  0.3476652907636961  0.3491011626467289  0.4549579830152177
  0.3739371826926282  0.3629944487770825  0.7844370975233251
  0.3476652907636961  0.8491011328537577  0.4549579830152177
  0.3739371826926282  0.8629944189841110  0.7844370975233251
  0.8434090319169042  0.3508890656535910  0.4636210071943633
  0.8512385587359056  0.3665582523674306  0.7787206079226070
  0.8434090319169042  0.8508890358606198  0.4636210071943633
  0.8512385587359056  0.8665582225744589  0.7787206079226070
  0.1522717611673142  0.1475224899309572  0.4824101135341833
  0.1369147572860034  0.1166827221995817  0.8033138094101059
  0.1522717611673142  0.6475225197622979  0.4824101135341833
  0.1369147572860034  0.6166827520309228  0.8033138094101059
  0.6499385352714262  0.1505831479883088  0.4895250488846513
  0.6452155576038958  0.1381819285150695  0.7995803579423579
  0.6499385352714262  0.6505831778196500  0.4895250488846513
  0.6452155576038958  0.6381819583464104  0.7995803579423579
 
  0.00000000E+00  0.00000000E+00  0.00000000E+00
  0.00000000E+00  0.00000000E+00  0.00000000E+00
  0.00000000E+00  0.00000000E+00  0.00000000E+00
  0.00000000E+00  0.00000000E+00  0.00000000E+00
  0.00000000E+00  0.00000000E+00  0.00000000E+00
  0.00000000E+00  0.00000000E+00  0.00000000E+00
  0.00000000E+00  0.00000000E+00  0.00000000E+00
  0.00000000E+00  0.00000000E+00  0.00000000E+00
  0.00000000E+00  0.00000000E+00  0.00000000E+00
  0.00000000E+00  0.00000000E+00  0.00000000E+00
  0.00000000E+00  0.00000000E+00  0.00000000E+00
  0.00000000E+00  0.00000000E+00  0.00000000E+00
  0.00000000E+00  0.00000000E+00  0.00000000E+00
  0.00000000E+00  0.00000000E+00  0.00000000E+00
  0.00000000E+00  0.00000000E+00  0.00000000E+00
  0.00000000E+00  0.00000000E+00  0.00000000E+00
  0.00000000E+00  0.00000000E+00  0.00000000E+00
  0.00000000E+00  0.00000000E+00  0.00000000E+00
  0.00000000E+00  0.00000000E+00  0.00000000E+00
  0.00000000E+00  0.00000000E+00  0.00000000E+00
  0.00000000E+00  0.00000000E+00  0.00000000E+00
  0.00000000E+00  0.00000000E+00  0.00000000E+00
  0.00000000E+00  0.00000000E+00  0.00000000E+00
  0.00000000E+00  0.00000000E+00  0.00000000E+00
  0.00000000E+00  0.00000000E+00  0.00000000E+00
  0.00000000E+00  0.00000000E+00  0.00000000E+00
  0.00000000E+00  0.00000000E+00  0.00000000E+00
  0.00000000E+00  0.00000000E+00  0.00000000E+00
  0.00000000E+00  0.00000000E+00  0.00000000E+00
  0.00000000E+00  0.00000000E+00  0.00000000E+00
  0.00000000E+00  0.00000000E+00  0.00000000E+00
  0.00000000E+00  0.00000000E+00  0.00000000E+00
  0.00000000E+00  0.00000000E+00  0.00000000E+00
  0.00000000E+00  0.00000000E+00  0.00000000E+00
  0.00000000E+00  0.00000000E+00  0.00000000E+00
  0.00000000E+00  0.00000000E+00  0.00000000E+00
  0.00000000E+00  0.00000000E+00  0.00000000E+00
  0.00000000E+00  0.00000000E+00  0.00000000E+00
  0.00000000E+00  0.00000000E+00  0.00000000E+00
  0.00000000E+00  0.00000000E+00  0.00000000E+00
  0.00000000E+00  0.00000000E+00  0.00000000E+00
  0.00000000E+00  0.00000000E+00  0.00000000E+00
  0.00000000E+00  0.00000000E+00  0.00000000E+00
  0.00000000E+00  0.00000000E+00  0.00000000E+00
  0.00000000E+00  0.00000000E+00  0.00000000E+00
  0.00000000E+00  0.00000000E+00  0.00000000E+00
  0.00000000E+00  0.00000000E+00  0.00000000E+00
  0.00000000E+00  0.00000000E+00  0.00000000E+00
  0.00000000E+00  0.00000000E+00  0.00000000E+00
  0.00000000E+00  0.00000000E+00  0.00000000E+00
  0.00000000E+00  0.00000000E+00  0.00000000E+00
  0.00000000E+00  0.00000000E+00  0.00000000E+00
  0.00000000E+00  0.00000000E+00  0.00000000E+00
  0.00000000E+00  0.00000000E+00  0.00000000E+00
  0.00000000E+00  0.00000000E+00  0.00000000E+00
  0.00000000E+00  0.00000000E+00  0.00000000E+00
  0.00000000E+00  0.00000000E+00  0.00000000E+00
  0.00000000E+00  0.00000000E+00  0.00000000E+00
  0.00000000E+00  0.00000000E+00  0.00000000E+00
  0.00000000E+00  0.00000000E+00  0.00000000E+00
  0.00000000E+00  0.00000000E+00  0.00000000E+00
  0.00000000E+00  0.00000000E+00  0.00000000E+00
  0.00000000E+00  0.00000000E+00  0.00000000E+00
  0.00000000E+00  0.00000000E+00  0.00000000E+00
  0.00000000E+00  0.00000000E+00  0.00000000E+00
  0.00000000E+00  0.00000000E+00  0.00000000E+00
  0.00000000E+00  0.00000000E+00  0.00000000E+00
  0.00000000E+00  0.00000000E+00  0.00000000E+00
  0.00000000E+00  0.00000000E+00  0.00000000E+00
  0.00000000E+00  0.00000000E+00  0.00000000E+00
  0.00000000E+00  0.00000000E+00  0.00000000E+00
  0.00000000E+00  0.00000000E+00  0.00000000E+00
  0.00000000E+00  0.00000000E+00  0.00000000E+00
  0.00000000E+00  0.00000000E+00  0.00000000E+00
  0.00000000E+00  0.00000000E+00  0.00000000E+00
  0.00000000E+00  0.00000000E+00  0.00000000E+00
  0.00000000E+00  0.00000000E+00  0.00000000E+00
  0.00000000E+00  0.00000000E+00  0.00000000E+00
  0.00000000E+00  0.00000000E+00  0.00000000E+00
  0.00000000E+00  0.00000000E+00  0.00000000E+00
  0.00000000E+00  0.00000000E+00  0.00000000E+00
  0.00000000E+00  0.00000000E+00  0.00000000E+00
  0.00000000E+00  0.00000000E+00  0.00000000E+00
  0.00000000E+00  0.00000000E+00  0.00000000E+00
  0.00000000E+00  0.00000000E+00  0.00000000E+00
  0.00000000E+00  0.00000000E+00  0.00000000E+00
  0.00000000E+00  0.00000000E+00  0.00000000E+00
  0.00000000E+00  0.00000000E+00  0.00000000E+00
  0.00000000E+00  0.00000000E+00  0.00000000E+00
  0.00000000E+00  0.00000000E+00  0.00000000E+00
  0.00000000E+00  0.00000000E+00  0.00000000E+00
  0.00000000E+00  0.00000000E+00  0.00000000E+00
  0.00000000E+00  0.00000000E+00  0.00000000E+00
  0.00000000E+00  0.00000000E+00  0.00000000E+00
  0.00000000E+00  0.00000000E+00  0.00000000E+00
  0.00000000E+00  0.00000000E+00  0.00000000E+00
  0.00000000E+00  0.00000000E+00  0.00000000E+00
  0.00000000E+00  0.00000000E+00  0.00000000E+00
  0.00000000E+00  0.00000000E+00  0.00000000E+00
  0.00000000E+00  0.00000000E+00  0.00000000E+00
  0.00000000E+00  0.00000000E+00  0.00000000E+00
  0.00000000E+00  0.00000000E+00  0.00000000E+00
  0.00000000E+00  0.00000000E+00  0.00000000E+00
  0.00000000E+00  0.00000000E+00  0.00000000E+00
  0.00000000E+00  0.00000000E+00  0.00000000E+00
  0.00000000E+00  0.00000000E+00  0.00000000E+00
  0.00000000E+00  0.00000000E+00  0.00000000E+00
  0.00000000E+00  0.00000000E+00  0.00000000E+00
  0.00000000E+00  0.00000000E+00  0.00000000E+00
  0.00000000E+00  0.00000000E+00  0.00000000E+00
  0.00000000E+00  0.00000000E+00  0.00000000E+00
  0.00000000E+00  0.00000000E+00  0.00000000E+00
  0.00000000E+00  0.00000000E+00  0.00000000E+00
  0.00000000E+00  0.00000000E+00  0.00000000E+00
  0.00000000E+00  0.00000000E+00  0.00000000E+00
  0.00000000E+00  0.00000000E+00  0.00000000E+00
  0.00000000E+00  0.00000000E+00  0.00000000E+00
  0.00000000E+00  0.00000000E+00  0.00000000E+00
  0.00000000E+00  0.00000000E+00  0.00000000E+00
  0.00000000E+00  0.00000000E+00  0.00000000E+00
  0.00000000E+00  0.00000000E+00  0.00000000E+00
  0.00000000E+00  0.00000000E+00  0.00000000E+00
  0.00000000E+00  0.00000000E+00  0.00000000E+00
  0.00000000E+00  0.00000000E+00  0.00000000E+00
  0.00000000E+00  0.00000000E+00  0.00000000E+00
  0.00000000E+00  0.00000000E+00  0.00000000E+00
  0.00000000E+00  0.00000000E+00  0.00000000E+00
  0.00000000E+00  0.00000000E+00  0.00000000E+00
  0.00000000E+00  0.00000000E+00  0.00000000E+00
  0.00000000E+00  0.00000000E+00  0.00000000E+00
  0.00000000E+00  0.00000000E+00  0.00000000E+00
  0.00000000E+00  0.00000000E+00  0.00000000E+00
  0.00000000E+00  0.00000000E+00  0.00000000E+00
  0.00000000E+00  0.00000000E+00  0.00000000E+00
  0.00000000E+00  0.00000000E+00  0.00000000E+00
  0.00000000E+00  0.00000000E+00  0.00000000E+00
  0.00000000E+00  0.00000000E+00  0.00000000E+00
  0.00000000E+00  0.00000000E+00  0.00000000E+00
  0.00000000E+00  0.00000000E+00  0.00000000E+00
  0.00000000E+00  0.00000000E+00  0.00000000E+00
