This file is generated by VASPKIT code  
   1.00000000000000     
    12.6406764983999995    0.0000000000000000    0.0000000000000000
     0.0000000000000000   25.2016296386999983    0.0000000000000000
     0.0000000000000000    1.8348134680999999   51.7578896671000024
   Cs   Pb   I 
    32    32    96
Direct
  0.2500000000316405  0.4859434410810356  0.2280821934361239
  0.2500000000316405  0.4861197755699058  0.4779488322075053
  0.2500000000316405 -0.0016502976098349  0.2295501588332995
  0.2500000000316405  0.0042519428401625  0.4749100936273969
  0.2500000000316405  0.2751290782768644  0.1280720763324359
  0.2500000000316405  0.2489240927737599  0.3549745078286909
  0.2500000000316405  0.2706610061452616  0.5930429435354989
  0.2500000000316405  0.7434370899330986  0.3524179950788196
  0.7500000595854175  0.0249564330539192  0.2564970211855966
  0.7500000595854175  0.0318134743742873  0.5001147719859551
  0.7500000595854175  0.5096839012719190  0.2523542223161849
  0.7500000595854175  0.5134006191564235  0.5009366899073227
  0.7500000595854175  0.2690594334651432  0.1349429853339393
  0.7500000595854175  0.2727714176996455  0.3746196994399513
  0.7500000595854175  0.2693196451482878  0.6002310373677653
  0.7500000595854175  0.7711732115958881  0.3774447650537747
  0.7500000595854175  0.0330348590827091  0.1331457012290822
  0.7500000595854175  0.0346908676745968  0.3708849580084349
  0.7500000595854175  0.0589760690536166  0.6058575946991759
  0.7500000595854175  0.5279679706200859  0.3715535620828526
  0.7500000595854175  0.2864471058762260  0.2443158542351035
  0.7500000595854175  0.2897356883559621  0.4908378414953131
  0.7500000595854175  0.7715284728801474  0.2479521391384301
  0.7500000595854175  0.7808390138459094  0.4935520067795561
  0.2500000000316405  0.4790900882374527  0.3591686531797891
  0.2500000000316405  0.0601045569773809  0.1214508723482526
  0.2500000000316405  0.9888886430137076  0.3575628225236717
  0.2500000000316405  0.0183904509967250  0.5943941040275738
  0.2500000000316405  0.2383906763613745  0.2380251325914324
  0.2500000000316405  0.2413407558375308  0.4839555594723746
  0.2500000000316405  0.7378420034158805  0.2350582815270581
  0.2500000000316405  0.7338721468623391  0.4842777376866602
  0.0005811915906648  0.3824477085950639  0.3025729854309233
  0.0022052141990855  0.3937681174670715  0.5542938728675333
  0.0002641567862127  0.8814120605653459  0.3047191272555631
 -0.0048544166868535  0.8856578478627735  0.5417576837539655
 -0.0040488220889152  0.1334745485884557  0.1811684046501871
 -0.0004375858866559  0.1358928177299742  0.4267436081762852
  0.0042416414366225  0.6239493933244243  0.1863520827742751
 -0.0003168827711198  0.6338987230192965  0.4244887824752369
 -0.0005061021331362  0.1339533390503573  0.3039063973321807
 -0.0004868719028683  0.1430480317233896  0.5502652432756037
 -0.0005350323353785  0.6301478571439391  0.3047151313910654
  0.0047450472023026  0.6304700247559237  0.5430875366609628
 -0.0000176944508092  0.3871033885844761  0.1752194527432815
  0.0002096620534300  0.3852103778663252  0.4264251458927635
 -0.0078792676227675  0.8778927518922689  0.1860824437346829
  0.0029479632574304  0.8843494546231554  0.4243621065055354
  0.4994188083935112  0.3824477085950639  0.3025729854309233
  0.4977947857850907  0.3937681174670715  0.5542938728675333
  0.4997358431979635  0.8814120605653459  0.3047191272555631
  0.5048544166710298  0.8856578478627735  0.5417576837539655
  0.5040488220730917  0.1334745485884557  0.1811684046501871
  0.5004375858708322  0.1358928177299742  0.4267436081762852
  0.4957583585475538  0.6239493933244243  0.1863520827742751
  0.5003168827552962  0.6338987230192965  0.4244887824752369
  0.5005061021173122  0.1339533390503573  0.3039063973321807
  0.5004868718870443  0.1430480317233896  0.5502652432756037
  0.5005350323195545  0.6301478571439391  0.3047151313910654
  0.4952549527818739  0.6304700247559237  0.5430875366609628
  0.5000176944349856  0.3871033885844761  0.1752194527432815
  0.4997903379307463  0.3852103778663252  0.4264251458927635
  0.5078792676069439  0.8778927518922689  0.1860824437346829
  0.4970520367267456  0.8843494546231554  0.4243621065055354
  0.2500000000316405  0.1179288381587787  0.3152030672839105
  0.2500000000316405  0.1389714214577579  0.5518591796619952
  0.2500000000316405  0.6120761740486571  0.3160454949373213
  0.2500000000316405  0.6354383678993025  0.5567917587553936
  0.2500000000316405  0.3585232573473405  0.1876385646579005
  0.2500000000316405  0.3630854472634407  0.4340922411909544
  0.2500000000316405  0.8680281013369614  0.1891986731623207
  0.2500000000316405  0.8669500630641908  0.4398087844849999
  0.7500000595854175  0.3947283108532222  0.1798822361909879
  0.7500000595854175  0.4009996356226298  0.4162579383078724
  0.7500000595854175  0.8895425745078839  0.1646543893040445
  0.7500000595854175  0.9027999769345932  0.4145704266401354
  0.7500000595854175  0.1557849317826792  0.2930427789951326
  0.7500000595854175  0.1584498781845629  0.5426946552903897
  0.7500000595854175  0.6442112548351230  0.2918681242502161
  0.7500000595854175  0.6504484119688700  0.5351233550427533
  0.7500000595854175  0.1133088169976253  0.1928316918091065
  0.7500000595854175  0.1107310281960128  0.4346795755413914
  0.7500000595854175  0.6096521500695389  0.1925001781181078
  0.7500000595854175  0.6102526698503385  0.4349010935315546
  0.7500000595854175  0.3606545085216782  0.3099087270126736
  0.7500000595854175  0.3799928951759501  0.5487647211900034
  0.7500000595854175  0.8552870198511113  0.3116456909184336
  0.7500000595854175  0.8707296569676181  0.5574889306276384
  0.2500000000316405  0.4049629163248004  0.2949127836201265
  0.2500000000316405  0.3974867038600114  0.5425440210358536
  0.2500000000316405  0.9059953310863226  0.2938868355393479
  0.2500000000316405  0.9113730106851479  0.5428688759035013
  0.2500000000316405  0.1519061374025338  0.1765334370884050
  0.2500000000316405  0.1588293200502254  0.4197843327248951
  0.2500000000316405  0.6542097585151802  0.1738902285122775
  0.2500000000316405  0.6616534426024229  0.4180797881386150
  0.0002528000956254  0.3588104345776582  0.1184956554007716
  0.0336472469794930  0.3592080430858972  0.3649377341129009
  0.0062039021261045  0.3560671549014388  0.6105669085058776
  0.0442003977226613  0.8571394674288393  0.3650198980520399
  0.0366055961748528  0.1062192212632025  0.2441002146926214
  0.0301839620682492  0.1110360642996193  0.4876558372089105
  0.0489821153144987  0.6012679151064177  0.2438903038977635
  0.0443305851899995  0.6038402063141957  0.4865073256399201
  0.9762827076556883  0.1471668297629534  0.1202726764501536
  0.9609831988594822  0.1575722552674768  0.3648065127695910
  0.9866610340241493  0.1548355113382198  0.6103928870043093
  0.9579107743468418  0.6593597850079573  0.3640762295672592
  0.9741059391390632  0.4048012622321903  0.2424404213370806
  0.9740725133283406  0.4090476754751759  0.4856709064849583
  0.9516186218921420  0.9083218644451659  0.2419288302832747
  0.9538953624080565  0.9173786850480038  0.4853547122454721
  0.9587124180912538  0.5071691679656015  0.3167561287704339
  0.9579079065607455  0.5169147244314831  0.5643371512849525
  0.9581256316132768  0.0050094906794454  0.3163198999353485
  0.9716114973383909  0.0101111237194986  0.5629532565992424
  0.9699846429885739  0.2549900440327793  0.1919546772085180
  0.9587421031812916  0.2585632388324900  0.4379714180615591
  0.9710494869103392  0.7549891826754433  0.1962623674631144
  0.9586199280510378  0.7589358428603193  0.4379620765506111
  0.0330518953224928  0.0036268227079145  0.1669962617882330
  0.0440072195873955  0.0091224918907143  0.4134364289890607
  0.0536019535743684  0.5105379101920685  0.1668204260107051
  0.0434237067034258  0.5116336200954653  0.4129129594675812
  0.0412439321658821  0.2576346481699232  0.2918353392897599
  0.0194052522160734  0.2652137258937822  0.5361178318627564
  0.0412485554944788  0.7577999856890160  0.2916002218792410
  0.0224070094536837  0.7651610276029819  0.5328372193339066
  0.5237172923759593  0.1471668297629534  0.1202726764501536
  0.5390168011721653  0.1575722552674768  0.3648065127695910
  0.5133389660074983  0.1548355113382198  0.6103928870043093
  0.5420892256848058  0.6593597850079573  0.3640762295672592
  0.5258940608925844  0.4048012622321903  0.2424404213370806
  0.5259274867033070  0.4090476754751759  0.4856709064849583
  0.5483813781395056  0.9083218644451659  0.2419288302832747
  0.5461046376235911  0.9173786850480038  0.4853547122454721
  0.4997471887340886  0.3588104345776582  0.1184956554007716
  0.4663527418502209  0.3592080430858972  0.3649377341129009
  0.4937960867036094  0.3560671549014388  0.6105669085058776
  0.4557995911070527  0.8571394674288393  0.3650198980520399
  0.4633943926548612  0.1062192212632025  0.2441002146926214
  0.4698160267614649  0.1110360642996193  0.4876558372089105
  0.4510178735152152  0.6012679151064177  0.2438903038977635
  0.4556694036397145  0.6038402063141957  0.4865073256399201
  0.4669480935072212  0.0036268227079145  0.1669962617882330
  0.4559927692423185  0.0091224918907143  0.4134364289890607
  0.4463980352553457  0.5105379101920685  0.1668204260107051
  0.4565762821262882  0.5116336200954653  0.4129129594675812
  0.4587560566638318  0.2576346481699232  0.2918353392897599
  0.4805947366136405  0.2652137258937822  0.5361178318627564
  0.4587514333352352  0.7577999856890160  0.2916002218792410
  0.4775929793760302  0.7651610276029819  0.5328372193339066
  0.5412875819403937  0.5071691679656015  0.3167561287704339
  0.5420920934709020  0.5169147244314831  0.5643371512849525
  0.5418743684183708  0.0050094906794454  0.3163198999353485
  0.5283885026932567  0.0101111237194986  0.5629532565992424
  0.5300153570430737  0.2549900440327792  0.1919546772085180
  0.5412578968503560  0.2585632388324900  0.4379714180615591
  0.5289505131213084  0.7549891826754433  0.1962623674631144
  0.5413800719806098  0.7589358428603193  0.4379620765506111
 
  0.00000000E+00  0.00000000E+00  0.00000000E+00
  0.00000000E+00  0.00000000E+00  0.00000000E+00
  0.00000000E+00  0.00000000E+00  0.00000000E+00
  0.00000000E+00  0.00000000E+00  0.00000000E+00
  0.00000000E+00  0.00000000E+00  0.00000000E+00
  0.00000000E+00  0.00000000E+00  0.00000000E+00
  0.00000000E+00  0.00000000E+00  0.00000000E+00
  0.00000000E+00  0.00000000E+00  0.00000000E+00
  0.00000000E+00  0.00000000E+00  0.00000000E+00
  0.00000000E+00  0.00000000E+00  0.00000000E+00
  0.00000000E+00  0.00000000E+00  0.00000000E+00
  0.00000000E+00  0.00000000E+00  0.00000000E+00
  0.00000000E+00  0.00000000E+00  0.00000000E+00
  0.00000000E+00  0.00000000E+00  0.00000000E+00
  0.00000000E+00  0.00000000E+00  0.00000000E+00
  0.00000000E+00  0.00000000E+00  0.00000000E+00
  0.00000000E+00  0.00000000E+00  0.00000000E+00
  0.00000000E+00  0.00000000E+00  0.00000000E+00
  0.00000000E+00  0.00000000E+00  0.00000000E+00
  0.00000000E+00  0.00000000E+00  0.00000000E+00
  0.00000000E+00  0.00000000E+00  0.00000000E+00
  0.00000000E+00  0.00000000E+00  0.00000000E+00
  0.00000000E+00  0.00000000E+00  0.00000000E+00
  0.00000000E+00  0.00000000E+00  0.00000000E+00
  0.00000000E+00  0.00000000E+00  0.00000000E+00
  0.00000000E+00  0.00000000E+00  0.00000000E+00
  0.00000000E+00  0.00000000E+00  0.00000000E+00
  0.00000000E+00  0.00000000E+00  0.00000000E+00
  0.00000000E+00  0.00000000E+00  0.00000000E+00
  0.00000000E+00  0.00000000E+00  0.00000000E+00
  0.00000000E+00  0.00000000E+00  0.00000000E+00
  0.00000000E+00  0.00000000E+00  0.00000000E+00
  0.00000000E+00  0.00000000E+00  0.00000000E+00
  0.00000000E+00  0.00000000E+00  0.00000000E+00
  0.00000000E+00  0.00000000E+00  0.00000000E+00
  0.00000000E+00  0.00000000E+00  0.00000000E+00
  0.00000000E+00  0.00000000E+00  0.00000000E+00
  0.00000000E+00  0.00000000E+00  0.00000000E+00
  0.00000000E+00  0.00000000E+00  0.00000000E+00
  0.00000000E+00  0.00000000E+00  0.00000000E+00
  0.00000000E+00  0.00000000E+00  0.00000000E+00
  0.00000000E+00  0.00000000E+00  0.00000000E+00
  0.00000000E+00  0.00000000E+00  0.00000000E+00
  0.00000000E+00  0.00000000E+00  0.00000000E+00
  0.00000000E+00  0.00000000E+00  0.00000000E+00
  0.00000000E+00  0.00000000E+00  0.00000000E+00
  0.00000000E+00  0.00000000E+00  0.00000000E+00
  0.00000000E+00  0.00000000E+00  0.00000000E+00
  0.00000000E+00  0.00000000E+00  0.00000000E+00
  0.00000000E+00  0.00000000E+00  0.00000000E+00
  0.00000000E+00  0.00000000E+00  0.00000000E+00
  0.00000000E+00  0.00000000E+00  0.00000000E+00
  0.00000000E+00  0.00000000E+00  0.00000000E+00
  0.00000000E+00  0.00000000E+00  0.00000000E+00
  0.00000000E+00  0.00000000E+00  0.00000000E+00
  0.00000000E+00  0.00000000E+00  0.00000000E+00
  0.00000000E+00  0.00000000E+00  0.00000000E+00
  0.00000000E+00  0.00000000E+00  0.00000000E+00
  0.00000000E+00  0.00000000E+00  0.00000000E+00
  0.00000000E+00  0.00000000E+00  0.00000000E+00
  0.00000000E+00  0.00000000E+00  0.00000000E+00
  0.00000000E+00  0.00000000E+00  0.00000000E+00
  0.00000000E+00  0.00000000E+00  0.00000000E+00
  0.00000000E+00  0.00000000E+00  0.00000000E+00
  0.00000000E+00  0.00000000E+00  0.00000000E+00
  0.00000000E+00  0.00000000E+00  0.00000000E+00
  0.00000000E+00  0.00000000E+00  0.00000000E+00
  0.00000000E+00  0.00000000E+00  0.00000000E+00
  0.00000000E+00  0.00000000E+00  0.00000000E+00
  0.00000000E+00  0.00000000E+00  0.00000000E+00
  0.00000000E+00  0.00000000E+00  0.00000000E+00
  0.00000000E+00  0.00000000E+00  0.00000000E+00
  0.00000000E+00  0.00000000E+00  0.00000000E+00
  0.00000000E+00  0.00000000E+00  0.00000000E+00
  0.00000000E+00  0.00000000E+00  0.00000000E+00
  0.00000000E+00  0.00000000E+00  0.00000000E+00
  0.00000000E+00  0.00000000E+00  0.00000000E+00
  0.00000000E+00  0.00000000E+00  0.00000000E+00
  0.00000000E+00  0.00000000E+00  0.00000000E+00
  0.00000000E+00  0.00000000E+00  0.00000000E+00
  0.00000000E+00  0.00000000E+00  0.00000000E+00
  0.00000000E+00  0.00000000E+00  0.00000000E+00
  0.00000000E+00  0.00000000E+00  0.00000000E+00
  0.00000000E+00  0.00000000E+00  0.00000000E+00
  0.00000000E+00  0.00000000E+00  0.00000000E+00
  0.00000000E+00  0.00000000E+00  0.00000000E+00
  0.00000000E+00  0.00000000E+00  0.00000000E+00
  0.00000000E+00  0.00000000E+00  0.00000000E+00
  0.00000000E+00  0.00000000E+00  0.00000000E+00
  0.00000000E+00  0.00000000E+00  0.00000000E+00
  0.00000000E+00  0.00000000E+00  0.00000000E+00
  0.00000000E+00  0.00000000E+00  0.00000000E+00
  0.00000000E+00  0.00000000E+00  0.00000000E+00
  0.00000000E+00  0.00000000E+00  0.00000000E+00
  0.00000000E+00  0.00000000E+00  0.00000000E+00
  0.00000000E+00  0.00000000E+00  0.00000000E+00
  0.00000000E+00  0.00000000E+00  0.00000000E+00
  0.00000000E+00  0.00000000E+00  0.00000000E+00
  0.00000000E+00  0.00000000E+00  0.00000000E+00
  0.00000000E+00  0.00000000E+00  0.00000000E+00
  0.00000000E+00  0.00000000E+00  0.00000000E+00
  0.00000000E+00  0.00000000E+00  0.00000000E+00
  0.00000000E+00  0.00000000E+00  0.00000000E+00
  0.00000000E+00  0.00000000E+00  0.00000000E+00
  0.00000000E+00  0.00000000E+00  0.00000000E+00
  0.00000000E+00  0.00000000E+00  0.00000000E+00
  0.00000000E+00  0.00000000E+00  0.00000000E+00
  0.00000000E+00  0.00000000E+00  0.00000000E+00
  0.00000000E+00  0.00000000E+00  0.00000000E+00
  0.00000000E+00  0.00000000E+00  0.00000000E+00
  0.00000000E+00  0.00000000E+00  0.00000000E+00
  0.00000000E+00  0.00000000E+00  0.00000000E+00
  0.00000000E+00  0.00000000E+00  0.00000000E+00
  0.00000000E+00  0.00000000E+00  0.00000000E+00
  0.00000000E+00  0.00000000E+00  0.00000000E+00
  0.00000000E+00  0.00000000E+00  0.00000000E+00
  0.00000000E+00  0.00000000E+00  0.00000000E+00
  0.00000000E+00  0.00000000E+00  0.00000000E+00
  0.00000000E+00  0.00000000E+00  0.00000000E+00
  0.00000000E+00  0.00000000E+00  0.00000000E+00
  0.00000000E+00  0.00000000E+00  0.00000000E+00
  0.00000000E+00  0.00000000E+00  0.00000000E+00
  0.00000000E+00  0.00000000E+00  0.00000000E+00
  0.00000000E+00  0.00000000E+00  0.00000000E+00
  0.00000000E+00  0.00000000E+00  0.00000000E+00
  0.00000000E+00  0.00000000E+00  0.00000000E+00
  0.00000000E+00  0.00000000E+00  0.00000000E+00
  0.00000000E+00  0.00000000E+00  0.00000000E+00
  0.00000000E+00  0.00000000E+00  0.00000000E+00
  0.00000000E+00  0.00000000E+00  0.00000000E+00
  0.00000000E+00  0.00000000E+00  0.00000000E+00
  0.00000000E+00  0.00000000E+00  0.00000000E+00
  0.00000000E+00  0.00000000E+00  0.00000000E+00
  0.00000000E+00  0.00000000E+00  0.00000000E+00
  0.00000000E+00  0.00000000E+00  0.00000000E+00
  0.00000000E+00  0.00000000E+00  0.00000000E+00
  0.00000000E+00  0.00000000E+00  0.00000000E+00
  0.00000000E+00  0.00000000E+00  0.00000000E+00
  0.00000000E+00  0.00000000E+00  0.00000000E+00
  0.00000000E+00  0.00000000E+00  0.00000000E+00
  0.00000000E+00  0.00000000E+00  0.00000000E+00
  0.00000000E+00  0.00000000E+00  0.00000000E+00
  0.00000000E+00  0.00000000E+00  0.00000000E+00
  0.00000000E+00  0.00000000E+00  0.00000000E+00
  0.00000000E+00  0.00000000E+00  0.00000000E+00
  0.00000000E+00  0.00000000E+00  0.00000000E+00
  0.00000000E+00  0.00000000E+00  0.00000000E+00
  0.00000000E+00  0.00000000E+00  0.00000000E+00
  0.00000000E+00  0.00000000E+00  0.00000000E+00
  0.00000000E+00  0.00000000E+00  0.00000000E+00
  0.00000000E+00  0.00000000E+00  0.00000000E+00
  0.00000000E+00  0.00000000E+00  0.00000000E+00
  0.00000000E+00  0.00000000E+00  0.00000000E+00
  0.00000000E+00  0.00000000E+00  0.00000000E+00
  0.00000000E+00  0.00000000E+00  0.00000000E+00
  0.00000000E+00  0.00000000E+00  0.00000000E+00
  0.00000000E+00  0.00000000E+00  0.00000000E+00
  0.00000000E+00  0.00000000E+00  0.00000000E+00
  0.00000000E+00  0.00000000E+00  0.00000000E+00
  0.00000000E+00  0.00000000E+00  0.00000000E+00
