This file is generated by VASPKIT code  
   1.00000000000000     
    12.6406764983999995    0.0000000000000000    0.0000000000000000
     0.0000000000000000   25.2016296386999983    0.0000000000000000
     0.0000000000000000    1.8348134680999999   51.7578896671000024
   Cs   Pb   I 
    24    32   100
Direct
  0.2530230157272670  0.5075099420502331  0.2318315630279807
  0.2587664331340619  0.5069148688716817  0.4811945441507671
  0.2613010557318572  0.9965217622146075  0.2304342909155937
  0.2656308085544444  0.9935987378252715  0.4823886863953046
  0.2603503819208562  0.2470685862629373  0.3533322343736241
  0.2487891327248691  0.7490195205843398  0.3550692417294047
  0.7412336264829961  0.0127782356902846  0.2483152416201339
  0.7469770438897909  0.0121831885816457  0.4976782674317525
  0.7343692510626135  0.5260943993139424  0.2471210993755963
  0.7386990038852007  0.5231713143850508  0.4990755395441394
  0.7396496776962016  0.2726245499638190  0.3761775960861162
  0.7512109268921889  0.7706736752139641  0.3744405887303355
  0.7461674593824118  0.0326930122331112  0.3700424532658159
  0.7503793780603377  0.5343683074925991  0.3700384448688344
  0.7404394572771921  0.2754106570223780  0.2407101947929488
  0.7427730598241296  0.2807198300162133  0.4949825582026405
  0.7432962765667653  0.7745369252382983  0.2429521938568824
  0.7447857330287134  0.7765590207570767  0.4935533695405361
  0.2538326002346463  0.4870000700011369  0.3594674070058036
  0.2496206815567203  0.9853248287183192  0.3594714154027851
  0.2572269997929283  0.2389732615163178  0.2345272871726992
  0.2595606023398661  0.2442824494033136  0.4887996356861112
  0.2552143265883446  0.7431340558676851  0.2359564758348036
  0.2567037830502927  0.7451561513599532  0.4865576366221775
  0.0025194708925769  0.3822165277959277  0.3050825952400755
  0.0121191712411095  0.3849005899025272  0.5414463762780287
  0.0007235631293329  0.8835759496396340  0.3025980048646186
  0.0063745274681283  0.8765937136009871  0.5531324404131642
  0.9878808287588905  0.1347925165231573  0.1880634542010313
  0.9974805291074231  0.1374765935230877  0.4244272650315440
  0.9936254725318718  0.6430994225965871  0.1763773900658957
  0.9992764368706671  0.6361171269322776  0.4269118554070009
  0.9967216902842132  0.1344564602988661  0.3049288934185902
  0.0048001300498294  0.1253591695347450  0.5434493843568967
  0.0003272329199849  0.6331086137249394  0.3030436753475846
  0.0049234973393145  0.6337140660446787  0.5549854899491746
  0.9951998699501706  0.3943339368512627  0.1860604461221632
  0.0032783097157869  0.3852366610201564  0.4245809668530293
  0.9950765026606856  0.8859790701925723  0.1745243405298924
  0.9996727670800151  0.8865844628866489  0.4264661849240348
  0.5048197730095237  0.3831286019192426  0.3028621593804679
  0.5058010697424674  0.3843161355481574  0.5540849246554018
  0.5015245911068157  0.8825860254358006  0.3030252417771009
  0.4959088018806787  0.8817627043935681  0.5569352730656499
  0.4941989302258849  0.1353769708775270  0.1754249058236581
  0.4951802269588288  0.1365645193997728  0.4266477008911516
  0.5040911980876739  0.6379304318040062  0.1725745574134100
  0.4984754088615366  0.6371070511361111  0.4264846184945185
  0.4998428357807930  0.1329628020836349  0.3025640526822286
  0.5013393470714601  0.1323033617864485  0.5554050593331958
  0.4989216619380525  0.6332072519582980  0.3036415554452479
  0.5009349716155314  0.6352448472051354  0.5581051828554323
  0.4986606528968924  0.3873897445995592  0.1741047711458641
  0.5001571641875593  0.3867303192353876  0.4269458075893909
  0.4990650283528211  0.8844482890321156  0.1714046476236276
  0.5010783380302999  0.8864858246532904  0.4258683048263716
  0.2485604884858343  0.1153186720493719  0.3145607279249105
  0.2482356091397487  0.1430233074935135  0.5539809823121291
  0.2501689705638206  0.6164579181684653  0.3152902283628616
  0.2474427902683332  0.6275106010553868  0.5434134109465705
  0.2497083146743047  0.3773253368176091  0.1908950129222192
  0.2493760508857418  0.3711827201683783  0.4385072602371878
  0.2499685363197056  0.8745357458058873  0.1851300830231321
  0.2495089535646957  0.8697684652798989  0.4353273944471455
  0.7517644504773092  0.3766697840270804  0.1755288332513314
  0.7514395711312236  0.4043744567280686  0.4149491323660286
  0.7525572693487247  0.8921824755574379  0.1860964046168901
  0.7498310890532374  0.9032351584417162  0.4142196319280775
  0.7506240087313162  0.1485103564709924  0.2910026000344317
  0.7502917449427534  0.1423677993799936  0.5386148473687199
  0.7504911060523694  0.6499246709310122  0.2941824658244739
  0.7500315232973523  0.6451573904433008  0.5443797772678071
  0.7485279933036558  0.1347635660389943  0.1980465988472628
  0.7488777586140435  0.1131611286486687  0.4340844094288016
  0.7502324210876525  0.6386048491174859  0.1910141873453101
  0.7487337845549539  0.6143281963593146  0.4335359694018677
  0.7531479592102959  0.3540369993239909  0.3099158710437123
  0.7484239063544981  0.3909620170448058  0.5544251562031658
  0.7510808038062328  0.8576311777286473  0.3089015931366644
  0.7469813746814519  0.8808620223934629  0.5495306707696433
  0.2511223010030146  0.4065320001182486  0.2954254210309387
  0.2514720663134021  0.3849295105738661  0.5314632465280771
  0.2512662750621039  0.9053648802403438  0.2959738610578726
  0.2497676385294055  0.8810882275072759  0.5384956580300295
  0.2515761532625598  0.1287310745008917  0.1750846742759012
  0.2468521004067621  0.1656561219830874  0.4195939594160208
  0.2530186849356061  0.6388310542047886  0.1799791597094166
  0.2489192558108252  0.6620620180696567  0.4206082373230687
  0.0429519763798479  0.3576128194539896  0.3651533302964025
  0.9946585665267511  0.8697289356865201  0.1204058632446699
  0.0339261542849394  0.8627735762421642  0.3649371725504469
  0.0241617047870050  0.8583086128396626  0.6078162471107185
  0.0453027310651570  0.1076791995496741  0.2441490240668609
  0.0418439789283313  0.1080838244333314  0.4864357288492918
  0.0283250229700723  0.6147407501646591  0.2442190817529238
  0.0210053397331838  0.6132850195305074  0.4860875728135154
  0.9570480422583987  0.1620803018383521  0.3643564703900979
  0.9758383138512414  0.6613844637719328  0.1216936131609011
  0.9660738643533070  0.6569195003427433  0.3645726281360535
  0.0053414521114954  0.6499641409256864  0.6091039746728700
  0.9581560397099153  0.4116092744928445  0.2430741016297681
  0.9546972875730895  0.4120139440972302  0.4853608063928723
  0.9789946789050628  0.9064080571074208  0.2434222576655445
  0.9716749956681742  0.9049523860739987  0.4852907487068094
  0.9612529523474669  0.5065638540421082  0.3156871947806302
  0.9724435385892881  0.5115656687068111  0.5554228548194213
  0.9586153366115208  0.0084933979172075  0.3153432919970327
  0.9842832365414084  0.0065804977303569  0.5570803003599123
  0.9966019069543293  0.2576412597149648  0.1931663348061508
  0.9530671184461768  0.2606177271684907  0.4379521237455375
  0.9929673310493725  0.7633069692336222  0.1944075569745944
  0.9570366566500061  0.7607080943099176  0.4368102420357575
  0.0275564800489584  0.0081274549136451  0.1740870054521981
  0.0387470662907796  0.0131292644873732  0.4138226356791029
  0.0157167820968381  0.5131126952903787  0.1724295599117071
  0.0413846820267258  0.5111996796228684  0.4141665384627076
  0.0469329001920698  0.2590754090582656  0.2915577067142028
  0.0033981116839243  0.2620518467238931  0.5363434807766293
  0.0429633619882404  0.7589851611273788  0.2926995884239827
  0.0070326875888741  0.7563861073778028  0.5351022586081858
  0.5394427729247626  0.1467014823232191  0.1214165148614556
  0.5355313683215257  0.1565223499513815  0.3637115382365145
  0.5278471821975153  0.1322760403177250  0.6101495747683714
  0.5249302698734852  0.6486500637322455  0.1179598149345466
  0.5341558564095453  0.6573624553868334  0.3647907656082043
  0.5004896183435243  0.6407149500932403  0.6128223183257511
  0.5377913303762422  0.4024036219632158  0.2442246988857427
  0.5354478461700154  0.4037460353073162  0.4859828756441600
  0.5280304316998254  0.8991358195394481  0.2438107838700834
  0.5309621288111785  0.9016087760697844  0.4844398145166768
  0.4721527880255997  0.3874170959215794  0.1193602631491685
  0.4644686019015893  0.3631707713409601  0.3657982624499859
  0.4605571972983525  0.3729916687557776  0.6080933454101638
  0.4995103518795906  0.8789781265189662  0.1166875195917888
  0.4658441138135697  0.8623306211980741  0.3647190350782961
  0.4750697003496299  0.8710430128793499  0.6115500453370729
  0.4645521240530996  0.1159471083395882  0.2435269548155732
  0.4622086398468728  0.1172894769629601  0.4852851315933172
  0.4690378414119366  0.6180843601688735  0.2450700159430563
  0.4719695385232894  0.6205572570984801  0.4856990466089766
  0.5102932693107293  0.0105931908498472  0.1813969053054242
  0.4572299796403498  0.0123872669170302  0.4145054964145620
  0.5061691006670697  0.5113016834804267  0.1839037911926872
  0.4587720461248713  0.5125712228891719  0.4153882206019159
  0.4599790555590244  0.2586132663171467  0.2920939025130648
  0.4963799246376953  0.2615804249504800  0.5416062380597017
  0.4581982695343073  0.7585555533433922  0.2933905518226473
  0.4918959767965215  0.7582315805195837  0.5406056252015297
  0.5427699905827652  0.5073058516124513  0.3150043340451711
  0.4897067009123857  0.5090999327706091  0.5481129549661954
  0.5412279240982436  0.0071218546509040  0.3141216098578173
  0.4938308695560454  0.0083915095403088  0.5456060690789323
  0.5036200455854198  0.2581126814883780  0.1879035775230785
  0.5400209146640907  0.2610798699096096  0.4374159279466754
  0.5081039934265936  0.7614614960918412  0.1889041903812505
  0.5418017006888078  0.7611377020939042  0.4361192786370930
 
  0.00000000E+00  0.00000000E+00  0.00000000E+00
  0.00000000E+00  0.00000000E+00  0.00000000E+00
  0.00000000E+00  0.00000000E+00  0.00000000E+00
  0.00000000E+00  0.00000000E+00  0.00000000E+00
  0.00000000E+00  0.00000000E+00  0.00000000E+00
  0.00000000E+00  0.00000000E+00  0.00000000E+00
  0.00000000E+00  0.00000000E+00  0.00000000E+00
  0.00000000E+00  0.00000000E+00  0.00000000E+00
  0.00000000E+00  0.00000000E+00  0.00000000E+00
  0.00000000E+00  0.00000000E+00  0.00000000E+00
  0.00000000E+00  0.00000000E+00  0.00000000E+00
  0.00000000E+00  0.00000000E+00  0.00000000E+00
  0.00000000E+00  0.00000000E+00  0.00000000E+00
  0.00000000E+00  0.00000000E+00  0.00000000E+00
  0.00000000E+00  0.00000000E+00  0.00000000E+00
  0.00000000E+00  0.00000000E+00  0.00000000E+00
  0.00000000E+00  0.00000000E+00  0.00000000E+00
  0.00000000E+00  0.00000000E+00  0.00000000E+00
  0.00000000E+00  0.00000000E+00  0.00000000E+00
  0.00000000E+00  0.00000000E+00  0.00000000E+00
  0.00000000E+00  0.00000000E+00  0.00000000E+00
  0.00000000E+00  0.00000000E+00  0.00000000E+00
  0.00000000E+00  0.00000000E+00  0.00000000E+00
  0.00000000E+00  0.00000000E+00  0.00000000E+00
  0.00000000E+00  0.00000000E+00  0.00000000E+00
  0.00000000E+00  0.00000000E+00  0.00000000E+00
  0.00000000E+00  0.00000000E+00  0.00000000E+00
  0.00000000E+00  0.00000000E+00  0.00000000E+00
  0.00000000E+00  0.00000000E+00  0.00000000E+00
  0.00000000E+00  0.00000000E+00  0.00000000E+00
  0.00000000E+00  0.00000000E+00  0.00000000E+00
  0.00000000E+00  0.00000000E+00  0.00000000E+00
  0.00000000E+00  0.00000000E+00  0.00000000E+00
  0.00000000E+00  0.00000000E+00  0.00000000E+00
  0.00000000E+00  0.00000000E+00  0.00000000E+00
  0.00000000E+00  0.00000000E+00  0.00000000E+00
  0.00000000E+00  0.00000000E+00  0.00000000E+00
  0.00000000E+00  0.00000000E+00  0.00000000E+00
  0.00000000E+00  0.00000000E+00  0.00000000E+00
  0.00000000E+00  0.00000000E+00  0.00000000E+00
  0.00000000E+00  0.00000000E+00  0.00000000E+00
  0.00000000E+00  0.00000000E+00  0.00000000E+00
  0.00000000E+00  0.00000000E+00  0.00000000E+00
  0.00000000E+00  0.00000000E+00  0.00000000E+00
  0.00000000E+00  0.00000000E+00  0.00000000E+00
  0.00000000E+00  0.00000000E+00  0.00000000E+00
  0.00000000E+00  0.00000000E+00  0.00000000E+00
  0.00000000E+00  0.00000000E+00  0.00000000E+00
  0.00000000E+00  0.00000000E+00  0.00000000E+00
  0.00000000E+00  0.00000000E+00  0.00000000E+00
  0.00000000E+00  0.00000000E+00  0.00000000E+00
  0.00000000E+00  0.00000000E+00  0.00000000E+00
  0.00000000E+00  0.00000000E+00  0.00000000E+00
  0.00000000E+00  0.00000000E+00  0.00000000E+00
  0.00000000E+00  0.00000000E+00  0.00000000E+00
  0.00000000E+00  0.00000000E+00  0.00000000E+00
  0.00000000E+00  0.00000000E+00  0.00000000E+00
  0.00000000E+00  0.00000000E+00  0.00000000E+00
  0.00000000E+00  0.00000000E+00  0.00000000E+00
  0.00000000E+00  0.00000000E+00  0.00000000E+00
  0.00000000E+00  0.00000000E+00  0.00000000E+00
  0.00000000E+00  0.00000000E+00  0.00000000E+00
  0.00000000E+00  0.00000000E+00  0.00000000E+00
  0.00000000E+00  0.00000000E+00  0.00000000E+00
  0.00000000E+00  0.00000000E+00  0.00000000E+00
  0.00000000E+00  0.00000000E+00  0.00000000E+00
  0.00000000E+00  0.00000000E+00  0.00000000E+00
  0.00000000E+00  0.00000000E+00  0.00000000E+00
  0.00000000E+00  0.00000000E+00  0.00000000E+00
  0.00000000E+00  0.00000000E+00  0.00000000E+00
  0.00000000E+00  0.00000000E+00  0.00000000E+00
  0.00000000E+00  0.00000000E+00  0.00000000E+00
  0.00000000E+00  0.00000000E+00  0.00000000E+00
  0.00000000E+00  0.00000000E+00  0.00000000E+00
  0.00000000E+00  0.00000000E+00  0.00000000E+00
  0.00000000E+00  0.00000000E+00  0.00000000E+00
  0.00000000E+00  0.00000000E+00  0.00000000E+00
  0.00000000E+00  0.00000000E+00  0.00000000E+00
  0.00000000E+00  0.00000000E+00  0.00000000E+00
  0.00000000E+00  0.00000000E+00  0.00000000E+00
  0.00000000E+00  0.00000000E+00  0.00000000E+00
  0.00000000E+00  0.00000000E+00  0.00000000E+00
  0.00000000E+00  0.00000000E+00  0.00000000E+00
  0.00000000E+00  0.00000000E+00  0.00000000E+00
  0.00000000E+00  0.00000000E+00  0.00000000E+00
  0.00000000E+00  0.00000000E+00  0.00000000E+00
  0.00000000E+00  0.00000000E+00  0.00000000E+00
  0.00000000E+00  0.00000000E+00  0.00000000E+00
  0.00000000E+00  0.00000000E+00  0.00000000E+00
  0.00000000E+00  0.00000000E+00  0.00000000E+00
  0.00000000E+00  0.00000000E+00  0.00000000E+00
  0.00000000E+00  0.00000000E+00  0.00000000E+00
  0.00000000E+00  0.00000000E+00  0.00000000E+00
  0.00000000E+00  0.00000000E+00  0.00000000E+00
  0.00000000E+00  0.00000000E+00  0.00000000E+00
  0.00000000E+00  0.00000000E+00  0.00000000E+00
  0.00000000E+00  0.00000000E+00  0.00000000E+00
  0.00000000E+00  0.00000000E+00  0.00000000E+00
  0.00000000E+00  0.00000000E+00  0.00000000E+00
  0.00000000E+00  0.00000000E+00  0.00000000E+00
  0.00000000E+00  0.00000000E+00  0.00000000E+00
  0.00000000E+00  0.00000000E+00  0.00000000E+00
  0.00000000E+00  0.00000000E+00  0.00000000E+00
  0.00000000E+00  0.00000000E+00  0.00000000E+00
  0.00000000E+00  0.00000000E+00  0.00000000E+00
  0.00000000E+00  0.00000000E+00  0.00000000E+00
  0.00000000E+00  0.00000000E+00  0.00000000E+00
  0.00000000E+00  0.00000000E+00  0.00000000E+00
  0.00000000E+00  0.00000000E+00  0.00000000E+00
  0.00000000E+00  0.00000000E+00  0.00000000E+00
  0.00000000E+00  0.00000000E+00  0.00000000E+00
  0.00000000E+00  0.00000000E+00  0.00000000E+00
  0.00000000E+00  0.00000000E+00  0.00000000E+00
  0.00000000E+00  0.00000000E+00  0.00000000E+00
  0.00000000E+00  0.00000000E+00  0.00000000E+00
  0.00000000E+00  0.00000000E+00  0.00000000E+00
  0.00000000E+00  0.00000000E+00  0.00000000E+00
  0.00000000E+00  0.00000000E+00  0.00000000E+00
  0.00000000E+00  0.00000000E+00  0.00000000E+00
  0.00000000E+00  0.00000000E+00  0.00000000E+00
  0.00000000E+00  0.00000000E+00  0.00000000E+00
  0.00000000E+00  0.00000000E+00  0.00000000E+00
  0.00000000E+00  0.00000000E+00  0.00000000E+00
  0.00000000E+00  0.00000000E+00  0.00000000E+00
  0.00000000E+00  0.00000000E+00  0.00000000E+00
  0.00000000E+00  0.00000000E+00  0.00000000E+00
  0.00000000E+00  0.00000000E+00  0.00000000E+00
  0.00000000E+00  0.00000000E+00  0.00000000E+00
  0.00000000E+00  0.00000000E+00  0.00000000E+00
  0.00000000E+00  0.00000000E+00  0.00000000E+00
  0.00000000E+00  0.00000000E+00  0.00000000E+00
  0.00000000E+00  0.00000000E+00  0.00000000E+00
  0.00000000E+00  0.00000000E+00  0.00000000E+00
  0.00000000E+00  0.00000000E+00  0.00000000E+00
  0.00000000E+00  0.00000000E+00  0.00000000E+00
  0.00000000E+00  0.00000000E+00  0.00000000E+00
  0.00000000E+00  0.00000000E+00  0.00000000E+00
  0.00000000E+00  0.00000000E+00  0.00000000E+00
  0.00000000E+00  0.00000000E+00  0.00000000E+00
  0.00000000E+00  0.00000000E+00  0.00000000E+00
  0.00000000E+00  0.00000000E+00  0.00000000E+00
  0.00000000E+00  0.00000000E+00  0.00000000E+00
  0.00000000E+00  0.00000000E+00  0.00000000E+00
  0.00000000E+00  0.00000000E+00  0.00000000E+00
  0.00000000E+00  0.00000000E+00  0.00000000E+00
  0.00000000E+00  0.00000000E+00  0.00000000E+00
  0.00000000E+00  0.00000000E+00  0.00000000E+00
  0.00000000E+00  0.00000000E+00  0.00000000E+00
  0.00000000E+00  0.00000000E+00  0.00000000E+00
  0.00000000E+00  0.00000000E+00  0.00000000E+00
  0.00000000E+00  0.00000000E+00  0.00000000E+00
  0.00000000E+00  0.00000000E+00  0.00000000E+00
  0.00000000E+00  0.00000000E+00  0.00000000E+00
  0.00000000E+00  0.00000000E+00  0.00000000E+00
  0.00000000E+00  0.00000000E+00  0.00000000E+00
  0.00000000E+00  0.00000000E+00  0.00000000E+00
