This file is generated by VASPKIT code  
   1.00000000000000     
    17.3823941941652436    0.0000000000000000    0.0000000000000010
     0.0000000000000028   18.2475883808102353    0.0000000000000010
     0.0000000000000000    0.0000000000000000   40.0000000000000000
   Cs   Pb   I 
    32    24    80
Direct
  0.4914317846619037  0.4629825663563735  0.3965800875521273
  0.5032397799791527  0.4659575372330150  0.7016640356293794
  0.4914317846619037  0.9629825663563734  0.3965800875521273
  0.5032397799791527  0.9659575372330150  0.7016640356293794
  0.9914317846619037  0.4629825663563735  0.3965800875521273
  0.0032397799791523  0.4659575372330150  0.7016640356293794
  0.9914317846619037  0.9629825663563734  0.3965800875521273
  0.0032397799791523  0.9659575372330150  0.7016640356293794
 -0.0032397799791525  0.0340424627669850  0.2463866691055954
  0.0085682153380963  0.0370174336436266  0.5514706171828473
 -0.0032397799791525  0.5340424627669850  0.2463866691055954
  0.0085682153380963  0.5370174336436266  0.5514706171828473
  0.4967602200208476  0.0340424627669850  0.2463866691055954
  0.5085682153380963  0.0370174336436266  0.5514706171828473
  0.4967602200208476  0.5340424627669850  0.2463866691055954
  0.5085682153380963  0.5370174336436266  0.5514706171828473
  0.2532397799791525  0.2840424627669850  0.2463866691055954
  0.2414317846619037  0.2870174336436265  0.5514706171828473
  0.2532397799791525  0.7840424627669850  0.2463866691055954
  0.2414317846619037  0.7870174336436266  0.5514706171828473
  0.7532397799791525  0.2840424627669850  0.2463866691055954
  0.7414317846619037  0.2870174336436265  0.5514706171828473
  0.7532397799791525  0.7840424627669850  0.2463866691055954
  0.7414317846619037  0.7870174336436266  0.5514706171828473
  0.2585682153380963  0.2129825663563735  0.3965800875521273
  0.2467602200208475  0.2159575372330151  0.7016640356293794
  0.2585682153380963  0.7129825663563734  0.3965800875521273
  0.2467602200208475  0.7159575372330150  0.7016640356293794
  0.7585682153380963  0.2129825663563735  0.3965800875521273
  0.7467602200208475  0.2159575372330151  0.7016640356293794
  0.7585682153380963  0.7129825663563734  0.3965800875521273
  0.7467602200208475  0.7159575372330150  0.7016640356293794
  0.2516506969631462  0.0003295426852665  0.3129317686734864
  0.2483493030368538 -0.0003295426852665  0.6351189360614807
  0.2516506969631462  0.5003295426852664  0.3129317686734864
  0.2483493030368538  0.4996704573147337  0.6351189360614807
  0.7516506969631465  0.0003295426852665  0.3129317686734864
  0.7483493030368535 -0.0003295426852665  0.6351189360614807
  0.7516506969631465  0.5003295426852664  0.3129317686734864
  0.7483493030368535  0.4996704573147337  0.6351189360614807
 -0.0016506969631462  0.2503295426852665  0.3129317686734864
  0.0016506969631462  0.2496704573147335  0.6351189360614807
 -0.0016506969631462  0.7503295426852664  0.3129317686734864
  0.0016506969631462  0.7496704573147336  0.6351189360614807
  0.4983493030368538  0.2503295426852665  0.3129317686734864
  0.5016506969631465  0.2496704573147335  0.6351189360614807
  0.4983493030368538  0.7503295426852664  0.3129317686734864
  0.5016506969631465  0.7496704573147336  0.6351189360614807
  0.2500000000000000 -0.0000000000000000  0.4740253523674838
  0.2500000000000000  0.5000000000000000  0.4740253523674838
  0.7500000000000000 -0.0000000000000000  0.4740253523674838
  0.7500000000000000  0.5000000000000000  0.4740253523674838
  0.0000000000000000  0.2500000000000000  0.4740253523674838
  0.0000000000000000  0.7500000000000000  0.4740253523674838
  0.5000000000000000  0.2500000000000000  0.4740253523674838
  0.5000000000000000  0.7500000000000000  0.4740253523674838
  0.0358610554576482  0.2528003776299951  0.3945721357660751
  0.0290771948661964  0.2560564410212166  0.7133484502666483
  0.0358610554576482  0.7528003776299949  0.3945721357660751
  0.0290771948661964  0.7560564410212169  0.7133484502666483
  0.5358610554576482  0.2528003776299951  0.3945721357660751
  0.5290771948661965  0.2560564410212166  0.7133484502666483
  0.5358610554576482  0.7528003776299949  0.3945721357660751
  0.5290771948661965  0.7560564410212169  0.7133484502666483
  0.4709228051338037  0.2439435589787834  0.2347022544683263
  0.4641389445423518  0.2471996223700051  0.5534785689688994
  0.4709228051338037  0.7439435589787831  0.2347022544683263
  0.4641389445423518  0.7471996223700051  0.5534785689688994
  0.9709228051338035  0.2439435589787834  0.2347022544683263
  0.9641389445423518  0.2471996223700051  0.5534785689688994
  0.9709228051338035  0.7439435589787831  0.2347022544683263
  0.9641389445423518  0.7471996223700051  0.5534785689688994
  0.2790771948661963  0.4939435589787834  0.2347022544683263
  0.2858610554576482  0.4971996223700049  0.5534785689688994
  0.2790771948661963  0.9939435589787831  0.2347022544683263
  0.2858610554576482  0.9971996223700051  0.5534785689688994
  0.7790771948661965  0.4939435589787834  0.2347022544683263
  0.7858610554576482  0.4971996223700049  0.5534785689688994
  0.7790771948661965  0.9939435589787831  0.2347022544683263
  0.7858610554576482  0.9971996223700051  0.5534785689688994
  0.2141389445423518  0.0028003776299949  0.3945721357660751
  0.2209228051338037  0.0060564410212167  0.7133484502666483
  0.2141389445423518  0.5028003776299949  0.3945721357660751
  0.2209228051338037  0.5060564410212169  0.7133484502666483
  0.7141389445423518  0.0028003776299949  0.3945721357660751
  0.7209228051338035  0.0060564410212167  0.7133484502666483
  0.7141389445423518  0.5028003776299949  0.3945721357660751
  0.7209228051338035  0.5060564410212169  0.7133484502666483
  0.4006000013768228  0.0999501873727180  0.3286609582626416
  0.3993022656221905  0.1040217112106154  0.6456617207599455
  0.4006000013768228  0.5999501873727178  0.3286609582626416
  0.3993022656221905  0.6040217112106153  0.6456617207599455
  0.9006000013768228  0.0999501873727180  0.3286609582626416
  0.8993022656221905  0.1040217112106154  0.6456617207599455
  0.9006000013768228  0.5999501873727178  0.3286609582626416
  0.8993022656221905  0.6040217112106153  0.6456617207599455
  0.1006977343778095  0.3959782887893846  0.3023889839750221
  0.0993999986231772  0.4000498126272820  0.6193897464723261
  0.1006977343778095  0.8959782887893847  0.3023889839750221
  0.0993999986231772  0.9000498126272822  0.6193897464723261
  0.6006977343778095  0.3959782887893846  0.3023889839750221
  0.5993999986231772  0.4000498126272820  0.6193897464723261
  0.6006977343778095  0.8959782887893847  0.3023889839750221
  0.5993999986231772  0.9000498126272822  0.6193897464723261
  0.1493022656221905  0.1459782887893845  0.3023889839750221
  0.1506000013768227  0.1500498126272820  0.6193897464723261
  0.1493022656221905  0.6459782887893847  0.3023889839750221
  0.1506000013768227  0.6500498126272822  0.6193897464723261
  0.6493022656221905  0.1459782887893845  0.3023889839750221
  0.6506000013768228  0.1500498126272820  0.6193897464723261
  0.6493022656221905  0.6459782887893847  0.3023889839750221
  0.6506000013768228  0.6500498126272822  0.6193897464723261
  0.3493999986231772  0.3499501873727180  0.3286609582626416
  0.3506977343778095  0.3540217112106154  0.6456617207599455
  0.3493999986231772  0.8499501873727178  0.3286609582626416
  0.3506977343778095  0.8540217112106153  0.6456617207599455
  0.8493999986231772  0.3499501873727180  0.3286609582626416
  0.8506977343778095  0.3540217112106154  0.6456617207599455
  0.8493999986231772  0.8499501873727178  0.3286609582626416
  0.8506977343778095  0.8540217112106153  0.6456617207599455
  0.0971984108929753  0.4007158463363683  0.4861725609278173
  0.0971984108929753  0.9007158463363684  0.4861725609278173
  0.5971984108929753  0.4007158463363683  0.4861725609278173
  0.5971984108929753  0.9007158463363684  0.4861725609278173
  0.4028015891070247  0.0992841536636316  0.4618781438071503
  0.4028015891070247  0.5992841536636316  0.4618781438071503
  0.9028015891070248  0.0992841536636316  0.4618781438071503
  0.9028015891070247  0.5992841536636316  0.4618781438071503
  0.3471984108929753  0.3492841536636317  0.4618781438071503
  0.3471984108929753  0.8492841536636316  0.4618781438071503
  0.8471984108929753  0.3492841536636317  0.4618781438071503
  0.8471984108929753  0.8492841536636316  0.4618781438071503
  0.1528015891070247  0.1507158463363684  0.4861725609278173
  0.1528015891070247  0.6507158463363684  0.4861725609278173
  0.6528015891070247  0.1507158463363684  0.4861725609278173
  0.6528015891070248  0.6507158463363684  0.4861725609278173
 
  0.00000000E+00  0.00000000E+00  0.00000000E+00
  0.00000000E+00  0.00000000E+00  0.00000000E+00
  0.00000000E+00  0.00000000E+00  0.00000000E+00
  0.00000000E+00  0.00000000E+00  0.00000000E+00
  0.00000000E+00  0.00000000E+00  0.00000000E+00
  0.00000000E+00  0.00000000E+00  0.00000000E+00
  0.00000000E+00  0.00000000E+00  0.00000000E+00
  0.00000000E+00  0.00000000E+00  0.00000000E+00
  0.00000000E+00  0.00000000E+00  0.00000000E+00
  0.00000000E+00  0.00000000E+00  0.00000000E+00
  0.00000000E+00  0.00000000E+00  0.00000000E+00
  0.00000000E+00  0.00000000E+00  0.00000000E+00
  0.00000000E+00  0.00000000E+00  0.00000000E+00
  0.00000000E+00  0.00000000E+00  0.00000000E+00
  0.00000000E+00  0.00000000E+00  0.00000000E+00
  0.00000000E+00  0.00000000E+00  0.00000000E+00
  0.00000000E+00  0.00000000E+00  0.00000000E+00
  0.00000000E+00  0.00000000E+00  0.00000000E+00
  0.00000000E+00  0.00000000E+00  0.00000000E+00
  0.00000000E+00  0.00000000E+00  0.00000000E+00
  0.00000000E+00  0.00000000E+00  0.00000000E+00
  0.00000000E+00  0.00000000E+00  0.00000000E+00
  0.00000000E+00  0.00000000E+00  0.00000000E+00
  0.00000000E+00  0.00000000E+00  0.00000000E+00
  0.00000000E+00  0.00000000E+00  0.00000000E+00
  0.00000000E+00  0.00000000E+00  0.00000000E+00
  0.00000000E+00  0.00000000E+00  0.00000000E+00
  0.00000000E+00  0.00000000E+00  0.00000000E+00
  0.00000000E+00  0.00000000E+00  0.00000000E+00
  0.00000000E+00  0.00000000E+00  0.00000000E+00
  0.00000000E+00  0.00000000E+00  0.00000000E+00
  0.00000000E+00  0.00000000E+00  0.00000000E+00
  0.00000000E+00  0.00000000E+00  0.00000000E+00
  0.00000000E+00  0.00000000E+00  0.00000000E+00
  0.00000000E+00  0.00000000E+00  0.00000000E+00
  0.00000000E+00  0.00000000E+00  0.00000000E+00
  0.00000000E+00  0.00000000E+00  0.00000000E+00
  0.00000000E+00  0.00000000E+00  0.00000000E+00
  0.00000000E+00  0.00000000E+00  0.00000000E+00
  0.00000000E+00  0.00000000E+00  0.00000000E+00
  0.00000000E+00  0.00000000E+00  0.00000000E+00
  0.00000000E+00  0.00000000E+00  0.00000000E+00
  0.00000000E+00  0.00000000E+00  0.00000000E+00
  0.00000000E+00  0.00000000E+00  0.00000000E+00
  0.00000000E+00  0.00000000E+00  0.00000000E+00
  0.00000000E+00  0.00000000E+00  0.00000000E+00
  0.00000000E+00  0.00000000E+00  0.00000000E+00
  0.00000000E+00  0.00000000E+00  0.00000000E+00
  0.00000000E+00  0.00000000E+00  0.00000000E+00
  0.00000000E+00  0.00000000E+00  0.00000000E+00
  0.00000000E+00  0.00000000E+00  0.00000000E+00
  0.00000000E+00  0.00000000E+00  0.00000000E+00
  0.00000000E+00  0.00000000E+00  0.00000000E+00
  0.00000000E+00  0.00000000E+00  0.00000000E+00
  0.00000000E+00  0.00000000E+00  0.00000000E+00
  0.00000000E+00  0.00000000E+00  0.00000000E+00
  0.00000000E+00  0.00000000E+00  0.00000000E+00
  0.00000000E+00  0.00000000E+00  0.00000000E+00
  0.00000000E+00  0.00000000E+00  0.00000000E+00
  0.00000000E+00  0.00000000E+00  0.00000000E+00
  0.00000000E+00  0.00000000E+00  0.00000000E+00
  0.00000000E+00  0.00000000E+00  0.00000000E+00
  0.00000000E+00  0.00000000E+00  0.00000000E+00
  0.00000000E+00  0.00000000E+00  0.00000000E+00
  0.00000000E+00  0.00000000E+00  0.00000000E+00
  0.00000000E+00  0.00000000E+00  0.00000000E+00
  0.00000000E+00  0.00000000E+00  0.00000000E+00
  0.00000000E+00  0.00000000E+00  0.00000000E+00
  0.00000000E+00  0.00000000E+00  0.00000000E+00
  0.00000000E+00  0.00000000E+00  0.00000000E+00
  0.00000000E+00  0.00000000E+00  0.00000000E+00
  0.00000000E+00  0.00000000E+00  0.00000000E+00
  0.00000000E+00  0.00000000E+00  0.00000000E+00
  0.00000000E+00  0.00000000E+00  0.00000000E+00
  0.00000000E+00  0.00000000E+00  0.00000000E+00
  0.00000000E+00  0.00000000E+00  0.00000000E+00
  0.00000000E+00  0.00000000E+00  0.00000000E+00
  0.00000000E+00  0.00000000E+00  0.00000000E+00
  0.00000000E+00  0.00000000E+00  0.00000000E+00
  0.00000000E+00  0.00000000E+00  0.00000000E+00
  0.00000000E+00  0.00000000E+00  0.00000000E+00
  0.00000000E+00  0.00000000E+00  0.00000000E+00
  0.00000000E+00  0.00000000E+00  0.00000000E+00
  0.00000000E+00  0.00000000E+00  0.00000000E+00
  0.00000000E+00  0.00000000E+00  0.00000000E+00
  0.00000000E+00  0.00000000E+00  0.00000000E+00
  0.00000000E+00  0.00000000E+00  0.00000000E+00
  0.00000000E+00  0.00000000E+00  0.00000000E+00
  0.00000000E+00  0.00000000E+00  0.00000000E+00
  0.00000000E+00  0.00000000E+00  0.00000000E+00
  0.00000000E+00  0.00000000E+00  0.00000000E+00
  0.00000000E+00  0.00000000E+00  0.00000000E+00
  0.00000000E+00  0.00000000E+00  0.00000000E+00
  0.00000000E+00  0.00000000E+00  0.00000000E+00
  0.00000000E+00  0.00000000E+00  0.00000000E+00
  0.00000000E+00  0.00000000E+00  0.00000000E+00
  0.00000000E+00  0.00000000E+00  0.00000000E+00
  0.00000000E+00  0.00000000E+00  0.00000000E+00
  0.00000000E+00  0.00000000E+00  0.00000000E+00
  0.00000000E+00  0.00000000E+00  0.00000000E+00
  0.00000000E+00  0.00000000E+00  0.00000000E+00
  0.00000000E+00  0.00000000E+00  0.00000000E+00
  0.00000000E+00  0.00000000E+00  0.00000000E+00
  0.00000000E+00  0.00000000E+00  0.00000000E+00
  0.00000000E+00  0.00000000E+00  0.00000000E+00
  0.00000000E+00  0.00000000E+00  0.00000000E+00
  0.00000000E+00  0.00000000E+00  0.00000000E+00
  0.00000000E+00  0.00000000E+00  0.00000000E+00
  0.00000000E+00  0.00000000E+00  0.00000000E+00
  0.00000000E+00  0.00000000E+00  0.00000000E+00
  0.00000000E+00  0.00000000E+00  0.00000000E+00
  0.00000000E+00  0.00000000E+00  0.00000000E+00
  0.00000000E+00  0.00000000E+00  0.00000000E+00
  0.00000000E+00  0.00000000E+00  0.00000000E+00
  0.00000000E+00  0.00000000E+00  0.00000000E+00
  0.00000000E+00  0.00000000E+00  0.00000000E+00
  0.00000000E+00  0.00000000E+00  0.00000000E+00
  0.00000000E+00  0.00000000E+00  0.00000000E+00
  0.00000000E+00  0.00000000E+00  0.00000000E+00
  0.00000000E+00  0.00000000E+00  0.00000000E+00
  0.00000000E+00  0.00000000E+00  0.00000000E+00
  0.00000000E+00  0.00000000E+00  0.00000000E+00
  0.00000000E+00  0.00000000E+00  0.00000000E+00
  0.00000000E+00  0.00000000E+00  0.00000000E+00
  0.00000000E+00  0.00000000E+00  0.00000000E+00
  0.00000000E+00  0.00000000E+00  0.00000000E+00
  0.00000000E+00  0.00000000E+00  0.00000000E+00
  0.00000000E+00  0.00000000E+00  0.00000000E+00
  0.00000000E+00  0.00000000E+00  0.00000000E+00
  0.00000000E+00  0.00000000E+00  0.00000000E+00
  0.00000000E+00  0.00000000E+00  0.00000000E+00
  0.00000000E+00  0.00000000E+00  0.00000000E+00
  0.00000000E+00  0.00000000E+00  0.00000000E+00
  0.00000000E+00  0.00000000E+00  0.00000000E+00
  0.00000000E+00  0.00000000E+00  0.00000000E+00
  0.00000000E+00  0.00000000E+00  0.00000000E+00
