This file is generated by VASPKIT code
 1.000000
   17.3823941941652436    0.0000000000000000    0.0000000000000010
    0.0000000000000028   18.2475883808102353    0.0000000000000010
    0.0000000000000000    0.0000000000000000   40.0000000000000000
   Cs   Pb   I 
    32    24    80
Direct
    0.4962110000000000    0.4827190000000000    0.3950211269729035     Cs1
    0.4962110000000000    0.4827190000000000    0.7110380285512264     Cs2
    0.4962110000000000    0.9827190000000000    0.3950211269729034     Cs3
    0.4962110000000000    0.9827190000000000    0.7110380285512264     Cs4
    0.9962109999999998    0.4827190000000000    0.3950211269729034     Cs5
    0.9962109999999998    0.4827190000000000    0.7110380285512264     Cs6
    0.9962110000000001    0.9827190000000000    0.3950211269729034     Cs7
    0.9962110000000001    0.9827190000000000    0.7110380285512266     Cs8
    0.0037890000000000    0.0172810000000000    0.2370126761837421     Cs9
    0.0037890000000000    0.0172810000000000    0.5530295777620649    Cs10
    0.0037890000000000    0.5172810000000000    0.2370126761837421    Cs11
    0.0037890000000000    0.5172810000000000    0.5530295777620649    Cs12
    0.5037889999999999    0.0172810000000000    0.2370126761837421    Cs13
    0.5037889999999999    0.0172810000000000    0.5530295777620649    Cs14
    0.5037889999999999    0.5172810000000000    0.2370126761837421    Cs15
    0.5037889999999999    0.5172810000000000    0.5530295777620649    Cs16
    0.2462110000000000    0.2672810000000000    0.2370126761837421    Cs17
    0.2462110000000000    0.2672810000000000    0.5530295777620649    Cs18
    0.2462110000000000    0.7672810000000000    0.2370126761837421    Cs19
    0.2462110000000000    0.7672810000000000    0.5530295777620649    Cs20
    0.7462110000000000    0.2672810000000000    0.2370126761837421    Cs21
    0.7462110000000000    0.2672810000000000    0.5530295777620649    Cs22
    0.7462110000000000    0.7672810000000000    0.2370126761837421    Cs23
    0.7462110000000000    0.7672810000000000    0.5530295777620649    Cs24
    0.2537890000000000    0.2327190000000000    0.3950211269729034    Cs25
    0.2537890000000000    0.2327190000000000    0.7110380285512264    Cs26
    0.2537890000000000    0.7327190000000000    0.3950211269729035    Cs27
    0.2537890000000000    0.7327190000000000    0.7110380285512264    Cs28
    0.7537889999999999    0.2327190000000000    0.3950211269729035    Cs29
    0.7537889999999999    0.2327190000000000    0.7110380285512264    Cs30
    0.7537889999999999    0.7327190000000000    0.3950211269729034    Cs31
    0.7537889999999999    0.7327190000000000    0.7110380285512264    Cs32
    0.2500000000000000    0.0000000000000000    0.3160169015783228     Pb1
    0.2500000000000000    0.0000000000000000    0.6320338031566456     Pb2
    0.2500000000000001    0.5000000000000000    0.3160169015783228     Pb3
    0.2500000000000001    0.5000000000000000    0.6320338031566456     Pb4
    0.7500000000000000    0.0000000000000000    0.3160169015783228     Pb5
    0.7500000000000000    0.0000000000000000    0.6320338031566456     Pb6
    0.7500000000000000    0.5000000000000000    0.3160169015783228     Pb7
    0.7500000000000000    0.5000000000000000    0.6320338031566456     Pb8
    0.0000000000000000    0.2500000000000000    0.3160169015783228     Pb9
    0.0000000000000000    0.2500000000000000    0.6320338031566456    Pb10
    0.0000000000000000    0.7500000000000000    0.3160169015783228    Pb11
    0.0000000000000000    0.7500000000000000    0.6320338031566456    Pb12
    0.4999999999999999    0.2500000000000000    0.3160169015783228    Pb13
    0.4999999999999999    0.2500000000000000    0.6320338031566456    Pb14
    0.5000000000000000    0.7500000000000000    0.3160169015783228    Pb15
    0.5000000000000000    0.7500000000000000    0.6320338031566456    Pb16
    0.2500000000000000    0.0000000000000000    0.4740253523674842    Pb17
    0.2500000000000001    0.5000000000000000    0.4740253523674842    Pb18
    0.7500000000000000    0.0000000000000000    0.4740253523674842    Pb19
    0.7500000000000000    0.5000000000000000    0.4740253523674842    Pb20
    0.0000000000000000    0.2500000000000000    0.4740253523674842    Pb21
    0.0000000000000000    0.7500000000000000    0.4740253523674842    Pb22
    0.4999999999999999    0.2500000000000000    0.4740253523674842    Pb23
    0.5000000000000000    0.7500000000000000    0.4740253523674842    Pb24
    0.0257395000000000    0.2535705000000000    0.3950211269729034      I1
    0.0257395000000000    0.2535705000000000    0.7110380285512264      I2
    0.0257395000000000    0.7535704999999999    0.3950211269729034      I3
    0.0257395000000000    0.7535704999999999    0.7110380285512264      I4
    0.5257395000000000    0.2535705000000000    0.3950211269729034      I5
    0.5257395000000000    0.2535705000000000    0.7110380285512264      I6
    0.5257395000000000    0.7535704999999999    0.3950211269729034      I7
    0.5257395000000000    0.7535704999999999    0.7110380285512264      I8
    0.4742604999999999    0.2464295000000000    0.2370126761837421      I9
    0.4742604999999999    0.2464295000000000    0.5530295777620649     I10
    0.4742605000000000    0.7464295000000000    0.2370126761837421     I11
    0.4742605000000000    0.7464295000000000    0.5530295777620649     I12
    0.9742605000000000    0.2464295000000000    0.2370126761837421     I13
    0.9742605000000000    0.2464295000000000    0.5530295777620649     I14
    0.9742605000000001    0.7464295000000000    0.2370126761837421     I15
    0.9742605000000001    0.7464295000000000    0.5530295777620649     I16
    0.2757395000000001    0.4964295000000000    0.2370126761837421     I17
    0.2757395000000001    0.4964295000000000    0.5530295777620649     I18
    0.2757395000000000    0.9964295000000000    0.2370126761837421     I19
    0.2757395000000000    0.9964295000000000    0.5530295777620649     I20
    0.7757395000000000    0.4964295000000000    0.2370126761837421     I21
    0.7757395000000000    0.4964295000000000    0.5530295777620649     I22
    0.7757395000000001    0.9964295000000000    0.2370126761837421     I23
    0.7757395000000001    0.9964295000000000    0.5530295777620649     I24
    0.2242605000000000    0.0035704999999999    0.3950211269729034     I25
    0.2242605000000000    0.0035704999999999    0.7110380285512264     I26
    0.2242605000000000    0.5035704999999999    0.3950211269729034     I27
    0.2242605000000000    0.5035704999999999    0.7110380285512264     I28
    0.7242605000000000    0.0035704999999999    0.3950211269729034     I29
    0.7242605000000000    0.0035704999999999    0.7110380285512264     I30
    0.7242605000000000    0.5035704999999999    0.3950211269729034     I31
    0.7242605000000000    0.5035704999999999    0.7110380285512264     I32
    0.3983120000000000    0.1019620000000000    0.3242096397517408     I33
    0.3983120000000000    0.1019620000000000    0.6402265413300636     I34
    0.3983119999999999    0.6019620000000000    0.3242096397517409     I35
    0.3983119999999999    0.6019620000000000    0.6402265413300636     I36
    0.8983120000000000    0.1019620000000000    0.3242096397517409     I37
    0.8983120000000000    0.1019620000000000    0.6402265413300636     I38
    0.8983120000000000    0.6019620000000000    0.3242096397517408     I39
    0.8983120000000000    0.6019620000000000    0.6402265413300636     I40
    0.1016880000000000    0.3980379999999999    0.3078241634049048     I41
    0.1016880000000000    0.3980379999999999    0.6238410649832277     I42
    0.1016880000000000    0.8980379999999999    0.3078241634049049     I43
    0.1016880000000000    0.8980379999999999    0.6238410649832277     I44
    0.6016880000000000    0.3980379999999999    0.3078241634049049     I45
    0.6016880000000000    0.3980379999999999    0.6238410649832277     I46
    0.6016880000000000    0.8980379999999999    0.3078241634049048     I47
    0.6016880000000000    0.8980379999999999    0.6238410649832277     I48
    0.1483120000000000    0.1480380000000000    0.3078241634049048     I49
    0.1483120000000000    0.1480380000000000    0.6238410649832277     I50
    0.1483120000000000    0.6480380000000000    0.3078241634049048     I51
    0.1483120000000000    0.6480380000000000    0.6238410649832277     I52
    0.6483120000000000    0.1480380000000000    0.3078241634049048     I53
    0.6483120000000000    0.1480380000000000    0.6238410649832277     I54
    0.6483120000000000    0.6480380000000000    0.3078241634049048     I55
    0.6483120000000000    0.6480380000000000    0.6238410649832277     I56
    0.3516880000000000    0.3519620000000000    0.3242096397517408     I57
    0.3516880000000000    0.3519620000000000    0.6402265413300636     I58
    0.3516880000000001    0.8519620000000000    0.3242096397517408     I59
    0.3516880000000001    0.8519620000000000    0.6402265413300636     I60
    0.8516880000000000    0.3519620000000000    0.3242096397517408     I61
    0.8516880000000000    0.3519620000000000    0.6402265413300636     I62
    0.8516880000000000    0.8519620000000000    0.3242096397517408     I63
    0.8516880000000000    0.8519620000000000    0.6402265413300636     I64
    0.1016880000000000    0.3980379999999999    0.4822180905409022     I65
    0.1016880000000000    0.8980379999999999    0.4822180905409022     I66
    0.6016880000000000    0.3980379999999999    0.4822180905409022     I67
    0.6016880000000000    0.8980379999999999    0.4822180905409021     I68
    0.3983120000000000    0.1019620000000000    0.4658326141940662     I69
    0.3983119999999999    0.6019620000000000    0.4658326141940662     I70
    0.8983120000000000    0.1019620000000000    0.4658326141940662     I71
    0.8983120000000000    0.6019620000000000    0.4658326141940661     I72
    0.3516880000000000    0.3519620000000000    0.4658326141940662     I73
    0.3516880000000001    0.8519620000000000    0.4658326141940661     I74
    0.8516880000000000    0.3519620000000000    0.4658326141940661     I75
    0.8516880000000000    0.8519620000000000    0.4658326141940661     I76
    0.1483120000000000    0.1480380000000000    0.4822180905409022     I77
    0.1483120000000000    0.6480380000000000    0.4822180905409022     I78
    0.6483120000000000    0.1480380000000000    0.4822180905409022     I79
    0.6483120000000000    0.6480380000000000    0.4822180905409021     I80
