This file is generated by VASPKIT code  
   1.00000000000000     
    12.6406764983999995    0.0000000000000000    0.0000000000000000
     0.0000000000000000   18.2475891113000017    0.0000000000000000
     0.0000000000000000    0.0000000000000000   50.0000000000000000
   Cs   Pb   I 
    20    24    68
Direct
  0.2500000000316405  0.4870202383062882  0.6980470263643317
  0.2500000000316405  0.9580230264025013  0.6940602245745709
  0.2500000000316405  0.4441938230049005  0.3446001049775940
  0.2500000000316405  0.0094963599894133  0.3455853902331436
  0.2500000000316405  0.4672392701028315  0.5187725290073930
  0.2500000000316405  0.9631392101736672  0.5161376350604840
  0.7500000595854175  0.0368607358301655  0.5268060213795180
  0.7500000595854175  0.5327607000685705  0.5241711274326091
  0.7500000595854175 -0.0094964139855810  0.6973582662068586
  0.7500000595854175  0.5558061471665008  0.6983435514624080
  0.7500000595854175  0.0419769196013306  0.3488833722654334
  0.7500000595854175  0.5129797318651133  0.3448965704756726
  0.7500000595854175  0.2750599194594618  0.6087701782055919
  0.7500000595854175  0.7898713611332095  0.6045106696416068
  0.7500000595854175  0.2867504214827472  0.4251436088929865
  0.7500000595854175  0.7864815151739796  0.4331988071175591
  0.2500000000316405  0.2135184699035005  0.6097448493224433
  0.2500000000316405  0.7132495785008108  0.6178000475470159
  0.2500000000316405  0.2101286239442705  0.4384329868183901
  0.2500000000316405  0.7249400805240965  0.4341734782544051
  0.0022432128474342 -0.0001948162109446  0.6080845150420326
 -0.0024711586125790  0.5055922888960773  0.6093822925473308
  0.0106866913818014  0.4940975283847507  0.2682443793880399
 -0.0106866913818014  0.5059024716536046  0.7746992472519639
 -0.0022432128474342  0.0001948162109446  0.4348591115979705
  0.0024711586125790  0.4944077111422777  0.4335613340926727
 -0.0038478943257331  0.2529516049108266  0.5214064096578573
  0.0038478943257331  0.7470483950727317  0.5215371871821469
  0.0057135524368548  0.2533849578164845  0.6920574977065262
 -0.0006073044429589  0.7652358098230249  0.6998792861865643
  0.0006073044429589  0.2347641901605332  0.3430644298534358
 -0.0057135524368548  0.7466150421670734  0.3508862183334734
  0.4977567871367420 -0.0001948162109446  0.6080845150420326
  0.5024711585967550  0.5055922888960773  0.6093822925473308
  0.4893133086023748  0.4940975283847507  0.2682443793880399
  0.5106866913659777  0.5059024716536046  0.7746992472519639
  0.5022432128316107  0.0001948162109446  0.4348591115979705
  0.4975288413715970  0.4944077111422777  0.4335613340926727
  0.5038478943099094  0.2529516049108266  0.5214064096578573
  0.4961521056584433  0.7470483950727317  0.5215371871821469
  0.4942864475473212  0.2533849578164845  0.6920574977065262
  0.5006073044271347  0.7652358098230249  0.6998792861865643
  0.4993926955412172  0.2347641901605332  0.3430644298534358
  0.5057135524210312  0.7466150421670734  0.3508862183334734
  0.2500000000316405  0.2552877834710398  0.5328204087642349
  0.2500000000316405  0.7565555909607782  0.5390794640262822
  0.2500000000316405  0.2641536832284828  0.7100999918419035
  0.2500000000316405  0.7397349364663086  0.7031415420295833
  0.2500000000316405  0.2306023834171204  0.3603456069983704
  0.2500000000316405  0.7824714150843579  0.3547320353272692
  0.7500000595854175  0.2175285699931220  0.6882116211127256
  0.7500000595854175  0.7693976166212421  0.6825980494416248
  0.7500000595854175  0.2602650486111712  0.3398021442104179
  0.7500000595854175  0.7358463168098793  0.3328436943980969
  0.7500000595854175  0.2434443941167018  0.5038641924337217
  0.7500000595854175  0.7447122165673219  0.5101232476957690
  0.7500000595854175  0.4856690209889027  0.6236748027498666
  0.7500000595854175  0.0032729619413539  0.6202314964981099
  0.7500000595854175  0.4980567178773907  0.2665996560329408
  0.7500000595854175  0.4816171312431792  0.7944435780061192
  0.7500000595854175  0.4972267958123630  0.4463152669640283
  0.7500000595854175  0.9938672899660946  0.4499078270531782
  0.2500000000316405  0.0061328322801968  0.5930358294068259
  0.2500000000316405  0.5027732041711948  0.5966283894959756
  0.2500000000316405  0.5183828687403786  0.2485000486338837
  0.2500000000316405  0.5019432821061670  0.7763439408070563
  0.2500000000316405 -0.0032728396950623  0.4227121897418841
  0.2500000000316405  0.5143309789946552  0.4192688834901275
  0.0467679618520891  0.1023929367514773  0.6631528989589919
  0.0286780040431450  0.6008768141493614  0.6602074500098950
  0.0066452101403174  0.0967214001214719  0.3098776823997229
  0.0343433698920677  0.5851594177271743  0.3188454828695139
  0.0384730894582965  0.0990543222397511  0.4859740767465468
  0.0404506767905560  0.6036911489943114  0.4874733490198750
  0.9595492821989851  0.3963088808014028  0.5554703074201195
  0.9615268695312446  0.9009456479316506  0.5569695796934480
  0.9656565890974734  0.4148406120685404  0.7240981139704903
  0.9933547488492236  0.9032785700499300  0.7330659144402817
  0.9713219549463965  0.3991232156463523  0.3827362362501076
  0.9532319971374520  0.8976070334199248  0.3797907873010110
  0.9626633197304262  0.1511755766666381  0.5733037642259952
  0.9557442572801976  0.6475454839783048  0.5750761748670453
  0.9466074338339929  0.6543456496895780  0.7506237589328789
  0.9631851021429045  0.1441290560346872  0.3990957087901651
  0.9678594023355775  0.6589474690624127  0.4017870816706440
  0.0321405566539635  0.3410525011089887  0.6411565449693598
  0.0368148568466364  0.8558709737610272  0.6438479178498382
  0.0533925251555482  0.3456543204818240  0.2923199273271170
  0.0442557017093438  0.3524544861930970  0.4678674815729567
  0.0373366392591150  0.8488244531290763  0.4696398922140070
  0.5404506581839570  0.3963088808014028  0.5554703074201195
  0.5384730708516975  0.9009456479316506  0.5569695796934480
  0.5343433512854686  0.4148406120685404  0.7240981139704903
  0.5066451915337185  0.9032785700499300  0.7330659144402817
  0.5286779854365455  0.3991232156463523  0.3827362362501076
  0.5467679432454901  0.8976070334199248  0.3797907873010110
  0.4532320568019741  0.1023929367514773  0.6631528989589919
  0.4713220146109180  0.6008768141493614  0.6602074500098950
  0.4933548085137457  0.0967214001214719  0.3098776823997229
  0.4656566487619953  0.5851594177271743  0.3188454828695139
  0.4615269291957667  0.0990543222397511  0.4859740767465468
  0.4595493418635071  0.6036911489943114  0.4874733490198750
  0.4678594620000995  0.3410525011089887  0.6411565449693598
  0.4631851618074269  0.8558709737610272  0.6438479178498382
  0.4466074934985149  0.3456543204818240  0.2923199273271170
  0.4557443169447195  0.3524544861930970  0.4678674815729567
  0.4626633793949482  0.8488244531290762  0.4696398922140070
  0.5373366206525159  0.1511755766666381  0.5733037642259952
  0.5442556831027444  0.6475454839783048  0.5750761748670453
  0.5533925065489491  0.6543456496895780  0.7506237589328789
  0.5368148382400375  0.1441290560346872  0.3990957087901651
  0.5321405380473645  0.6589474690624127  0.4017870816706440
 
  0.00000000E+00  0.00000000E+00  0.00000000E+00
  0.00000000E+00  0.00000000E+00  0.00000000E+00
  0.00000000E+00  0.00000000E+00  0.00000000E+00
  0.00000000E+00  0.00000000E+00  0.00000000E+00
  0.00000000E+00  0.00000000E+00  0.00000000E+00
  0.00000000E+00  0.00000000E+00  0.00000000E+00
  0.00000000E+00  0.00000000E+00  0.00000000E+00
  0.00000000E+00  0.00000000E+00  0.00000000E+00
  0.00000000E+00  0.00000000E+00  0.00000000E+00
  0.00000000E+00  0.00000000E+00  0.00000000E+00
  0.00000000E+00  0.00000000E+00  0.00000000E+00
  0.00000000E+00  0.00000000E+00  0.00000000E+00
  0.00000000E+00  0.00000000E+00  0.00000000E+00
  0.00000000E+00  0.00000000E+00  0.00000000E+00
  0.00000000E+00  0.00000000E+00  0.00000000E+00
  0.00000000E+00  0.00000000E+00  0.00000000E+00
  0.00000000E+00  0.00000000E+00  0.00000000E+00
  0.00000000E+00  0.00000000E+00  0.00000000E+00
  0.00000000E+00  0.00000000E+00  0.00000000E+00
  0.00000000E+00  0.00000000E+00  0.00000000E+00
  0.00000000E+00  0.00000000E+00  0.00000000E+00
  0.00000000E+00  0.00000000E+00  0.00000000E+00
  0.00000000E+00  0.00000000E+00  0.00000000E+00
  0.00000000E+00  0.00000000E+00  0.00000000E+00
  0.00000000E+00  0.00000000E+00  0.00000000E+00
  0.00000000E+00  0.00000000E+00  0.00000000E+00
  0.00000000E+00  0.00000000E+00  0.00000000E+00
  0.00000000E+00  0.00000000E+00  0.00000000E+00
  0.00000000E+00  0.00000000E+00  0.00000000E+00
  0.00000000E+00  0.00000000E+00  0.00000000E+00
  0.00000000E+00  0.00000000E+00  0.00000000E+00
  0.00000000E+00  0.00000000E+00  0.00000000E+00
  0.00000000E+00  0.00000000E+00  0.00000000E+00
  0.00000000E+00  0.00000000E+00  0.00000000E+00
  0.00000000E+00  0.00000000E+00  0.00000000E+00
  0.00000000E+00  0.00000000E+00  0.00000000E+00
  0.00000000E+00  0.00000000E+00  0.00000000E+00
  0.00000000E+00  0.00000000E+00  0.00000000E+00
  0.00000000E+00  0.00000000E+00  0.00000000E+00
  0.00000000E+00  0.00000000E+00  0.00000000E+00
  0.00000000E+00  0.00000000E+00  0.00000000E+00
  0.00000000E+00  0.00000000E+00  0.00000000E+00
  0.00000000E+00  0.00000000E+00  0.00000000E+00
  0.00000000E+00  0.00000000E+00  0.00000000E+00
  0.00000000E+00  0.00000000E+00  0.00000000E+00
  0.00000000E+00  0.00000000E+00  0.00000000E+00
  0.00000000E+00  0.00000000E+00  0.00000000E+00
  0.00000000E+00  0.00000000E+00  0.00000000E+00
  0.00000000E+00  0.00000000E+00  0.00000000E+00
  0.00000000E+00  0.00000000E+00  0.00000000E+00
  0.00000000E+00  0.00000000E+00  0.00000000E+00
  0.00000000E+00  0.00000000E+00  0.00000000E+00
  0.00000000E+00  0.00000000E+00  0.00000000E+00
  0.00000000E+00  0.00000000E+00  0.00000000E+00
  0.00000000E+00  0.00000000E+00  0.00000000E+00
  0.00000000E+00  0.00000000E+00  0.00000000E+00
  0.00000000E+00  0.00000000E+00  0.00000000E+00
  0.00000000E+00  0.00000000E+00  0.00000000E+00
  0.00000000E+00  0.00000000E+00  0.00000000E+00
  0.00000000E+00  0.00000000E+00  0.00000000E+00
  0.00000000E+00  0.00000000E+00  0.00000000E+00
  0.00000000E+00  0.00000000E+00  0.00000000E+00
  0.00000000E+00  0.00000000E+00  0.00000000E+00
  0.00000000E+00  0.00000000E+00  0.00000000E+00
  0.00000000E+00  0.00000000E+00  0.00000000E+00
  0.00000000E+00  0.00000000E+00  0.00000000E+00
  0.00000000E+00  0.00000000E+00  0.00000000E+00
  0.00000000E+00  0.00000000E+00  0.00000000E+00
  0.00000000E+00  0.00000000E+00  0.00000000E+00
  0.00000000E+00  0.00000000E+00  0.00000000E+00
  0.00000000E+00  0.00000000E+00  0.00000000E+00
  0.00000000E+00  0.00000000E+00  0.00000000E+00
  0.00000000E+00  0.00000000E+00  0.00000000E+00
  0.00000000E+00  0.00000000E+00  0.00000000E+00
  0.00000000E+00  0.00000000E+00  0.00000000E+00
  0.00000000E+00  0.00000000E+00  0.00000000E+00
  0.00000000E+00  0.00000000E+00  0.00000000E+00
  0.00000000E+00  0.00000000E+00  0.00000000E+00
  0.00000000E+00  0.00000000E+00  0.00000000E+00
  0.00000000E+00  0.00000000E+00  0.00000000E+00
  0.00000000E+00  0.00000000E+00  0.00000000E+00
  0.00000000E+00  0.00000000E+00  0.00000000E+00
  0.00000000E+00  0.00000000E+00  0.00000000E+00
  0.00000000E+00  0.00000000E+00  0.00000000E+00
  0.00000000E+00  0.00000000E+00  0.00000000E+00
  0.00000000E+00  0.00000000E+00  0.00000000E+00
  0.00000000E+00  0.00000000E+00  0.00000000E+00
  0.00000000E+00  0.00000000E+00  0.00000000E+00
  0.00000000E+00  0.00000000E+00  0.00000000E+00
  0.00000000E+00  0.00000000E+00  0.00000000E+00
  0.00000000E+00  0.00000000E+00  0.00000000E+00
  0.00000000E+00  0.00000000E+00  0.00000000E+00
  0.00000000E+00  0.00000000E+00  0.00000000E+00
  0.00000000E+00  0.00000000E+00  0.00000000E+00
  0.00000000E+00  0.00000000E+00  0.00000000E+00
  0.00000000E+00  0.00000000E+00  0.00000000E+00
  0.00000000E+00  0.00000000E+00  0.00000000E+00
  0.00000000E+00  0.00000000E+00  0.00000000E+00
  0.00000000E+00  0.00000000E+00  0.00000000E+00
  0.00000000E+00  0.00000000E+00  0.00000000E+00
  0.00000000E+00  0.00000000E+00  0.00000000E+00
  0.00000000E+00  0.00000000E+00  0.00000000E+00
  0.00000000E+00  0.00000000E+00  0.00000000E+00
  0.00000000E+00  0.00000000E+00  0.00000000E+00
  0.00000000E+00  0.00000000E+00  0.00000000E+00
  0.00000000E+00  0.00000000E+00  0.00000000E+00
  0.00000000E+00  0.00000000E+00  0.00000000E+00
  0.00000000E+00  0.00000000E+00  0.00000000E+00
  0.00000000E+00  0.00000000E+00  0.00000000E+00
  0.00000000E+00  0.00000000E+00  0.00000000E+00
  0.00000000E+00  0.00000000E+00  0.00000000E+00
  0.00000000E+00  0.00000000E+00  0.00000000E+00
