This file is generated by VASPKIT code  
   1.00000000000000     
    17.3823947905999994    0.0000000000000000    0.0000000000000000
     0.0000000000000000   18.2475891113000017    0.0000000000000000
     0.0000000000000000    0.0000000000000000   40.0000000000000000
   Cs   Pb   I 
    36    32   100
Direct
  0.4879763583948911  0.4681048940590457  0.0906064747311604
  0.4937108296069362  0.4659021231725608  0.3950211405749968
  0.4879763583948911  0.4681048940590457  0.6994357468188424
  0.4879763583948911  0.9681048642660742  0.0906064747311604
  0.4937108296069362  0.9659020933795889  0.3950211405749968
  0.4879763583948911  0.9681048642660742  0.6994357468188424
  0.9877721885754304  0.4627148011536681  0.3950211405749968
  0.9877721885754304  0.9627147713606968  0.3950211405749968
  0.0184968022340351  0.0309340599032658  0.2348041526295633
  0.0184968022340351  0.0309340599032658  0.5552381136204414
  0.0184968022340351  0.5309340542778636  0.2348041526295633
  0.0184968022340351  0.5309340542778636  0.5552381136204414
  0.5048361208360227  0.0337879347188088  0.2390418656884728
  0.5048361208360227  0.0337879347188088  0.5510004005615319
  0.5048361208360227  0.5337879290934069  0.2390418656884728
  0.5048361208360227  0.5337879290934069  0.5510004005615319
  0.2421550281220950  0.2851140376957941  0.2359481310865388
  0.2421550281220950  0.2851140376957941  0.5540941351634664
  0.2421550281220950  0.7851140377149718  0.2359481310865388
  0.2421550281220950  0.7851140377149718  0.5540941351634664
  0.7316218333662686  0.2898735151495423  0.2378552144628790
  0.7316218333662686  0.2898735151495423  0.5521870517871258
  0.7316218333662686  0.7898735151687202  0.2378552144628790
  0.7316218333662686  0.7898735151687202  0.5521870517871258
  0.2825654712705165  0.2132921686003690  0.0884084977853540
  0.2693036470839247  0.2133380788937478  0.3950211405749968
  0.2825654712705165  0.2132921686003690  0.7016337237646491
  0.2825654712705165  0.7132921835256248  0.0884084977853540
  0.2693036470839247  0.7133380938190034  0.3950211405749968
  0.2825654712705165  0.7132921835256248  0.7016337237646491
  0.7313326100765893  0.2168502471279442  0.0868770072754463
  0.7578536606386309  0.2125021940178430  0.3950211405749968
  0.7313326100765893  0.2168502471279442  0.7031652142745562
  0.7313326100765893  0.7168502620532000  0.0868770072754463
  0.7578536606386309  0.7125022089430988  0.3950211405749968
  0.7313326100765893  0.7168502620532000  0.7031652142745562
  0.2493779571793493  0.0000748067483077  0.3154336385151865
  0.2447831085438209  0.0003904648726810  0.6372106999448481
  0.2493779571793493  0.5000748067674854  0.3154336385151865
  0.2447831085438209  0.5003904648918583  0.6372106999448481
  0.7538534091040350  0.0004241527405174  0.3144970806471836
  0.7545088365244823  0.0027525372834294  0.6381013673829810
  0.7538534091040350  0.5004241527596950  0.3144970806471836
  0.7545088365244823  0.5027525373026069  0.6381013673829810
  0.0011883635820926  0.2491698656910051  0.3174972611498862
 -0.0107476840763624  0.2506960163507593  0.6286380615845787
  0.0011883635820926  0.7491698656553781  0.3174972611498862
 -0.0107476840763624  0.7506960163151326  0.6286380615845787
  0.5009739385081547  0.2504758421209961  0.3158200592730593
  0.5038771700655903  0.2516389505900434  0.6327622232043320
  0.5009739385081547  0.7504758420853692  0.3158200592730593
  0.5038771700655903  0.7516389505544168  0.6327622232043320
  0.2447831085438209  0.0003904648726810  0.1528315812051524
  0.2493779571793493  0.0000748067483077  0.4746086128348154
  0.2447831085438209  0.5003904648918583  0.1528315812051524
  0.2493779571793493  0.5000748067674854  0.4746086128348154
  0.7545088365244823  0.0027525372834294  0.1519409137670201
  0.7538534091040350  0.0004241527405174  0.4755451707028183
  0.7545088365244823  0.5027525373026069  0.1519409137670201
  0.7538534091040350  0.5004241527596950  0.4755451707028183
 -0.0107476840763624  0.2506960163507593  0.1614042195654221
  0.0011883635820926  0.2491698656910051  0.4725449902001156
 -0.0107476840763624  0.7506960163151326  0.1614042195654221
  0.0011883635820926  0.7491698656553781  0.4725449902001156
  0.5038771700655903  0.2516389505900434  0.1572800579456688
  0.5009739385081547  0.2504758421209961  0.4742221920769426
  0.5038771700655903  0.7516389505544168  0.1572800579456688
  0.5009739385081547  0.7504758420853692  0.4742221920769426
  0.0453137764224369  0.2545416215664815  0.3950211405749968
  0.0453137764224369  0.7545416215308620  0.3950211405749968
  0.5109041112150581  0.2540032065658149  0.0773552725191232
  0.5364957600690067  0.2541853246517998  0.3950211405749968
  0.5109041112150581  0.2540032065658149  0.7126869490308797
  0.5109041112150581  0.7540032065301955  0.0773552725191232
  0.5364957600690067  0.7541853246161804  0.3950211405749968
  0.5109041112150581  0.7540032065301955  0.7126869490308797
  0.4673249006118677  0.2480714568701324  0.2376713967124332
  0.4673249006118677  0.2480714568701324  0.5523708695375719
  0.4673249006118677  0.7480714717953951  0.2376713967124332
  0.4673249006118677  0.7480714717953951  0.5523708695375719
  0.9534055443376031  0.2388731845732946  0.2359022027600634
  0.9534055443376031  0.2388731845732946  0.5541400634899415
  0.9534055443376031  0.7388731994985577  0.2359022027600634
  0.9534055443376031  0.7388731994985577  0.5541400634899415
  0.2768404230815488  0.4985292780992890  0.2367143219846452
  0.2768404230815488  0.4985292780992890  0.5533279442653595
  0.2768404230815488 -0.0014706026876981  0.2367143219846452
  0.2768404230815488 -0.0014706026876981  0.5533279442653595
  0.7943351192506312  0.4954623724786659  0.2361200699896588
  0.7943351192506312  0.4954623724786659  0.5539221962603462
  0.7943351192506312  0.9954624916916784  0.2361200699896588
  0.7943351192506312  0.9954624916916784  0.5539221962603462
  0.2587789639900086  0.0047680927556114  0.0750972958931718
  0.2093798352420139  0.0066387007361877  0.3950211405749968
  0.2587789639900086  0.0047680927556114  0.7149449256568311
  0.2587789639900086  0.5047680892126745  0.0750972958931718
  0.2093798352420139  0.5066386971932511  0.3950211405749968
  0.2587789639900086  0.5047680892126745  0.7149449256568311
  0.7050507296106820  0.0076448843776536  0.0773061077025562
  0.7177552830023345  0.0025387323910396  0.3950211405749968
  0.7050507296106820  0.0076448843776536  0.7127361138474466
  0.7050507296106820  0.5076448808347168  0.0773061077025562
  0.7177552830023345  0.5025387288481032  0.3950211405749968
  0.7050507296106820  0.5076448808347168  0.7127361138474466
  0.4022960016277349  0.0996397777744848  0.3279574969930815
  0.4014540086929593  0.1029545638761943  0.6362282522532337
  0.4022960016277349  0.5996398076058187  0.3279574969930815
  0.4014540086929593  0.6029545937075278  0.6362282522532337
  0.9050011835401881  0.0996995367797499  0.3291225279807662
  0.9004732141052838  0.1084108768793271  0.6558129003618148
  0.9050011835401881  0.5996995666110838  0.3291225279807662
  0.9004732141052838  0.6084109067106608  0.6558129003618148
  0.0971511713154484  0.3978655983018718  0.3029603235577928
  0.0989764094930649  0.3949646476176130  0.6237388230633663
  0.0971511713154484  0.8978655685088931  0.3029603235577928
  0.0989764094930649  0.8949646178246344  0.6237388230633663
  0.5993000821479650  0.4008279108581423  0.3044345263969003
  0.6024432010516244  0.4011152595402173  0.6200472813140604
  0.5993000821479650  0.9008278810651633  0.3044345263969003
  0.6024432010516244  0.9011152297472387  0.6200472813140604
  0.1517548926915461  0.1508612617139161  0.3021584416135942
  0.1481121182876735  0.1534300643830950  0.6269783574108484
  0.1517548926915461  0.6508612319209441  0.3021584416135942
  0.1481121182876735  0.6534300345901236  0.6269783574108484
  0.6531234631383994  0.1488270445237418  0.3036139548599030
  0.6517012430197796  0.1487197583777701  0.6187124560415668
  0.6531234631383994  0.6488270147307702  0.3036139548599030
  0.6517012430197796  0.6487197285847985  0.6187124560415668
  0.3488528783293401  0.3509721202950574  0.3277517388873858
  0.3503911125804233  0.3533565977014058  0.6378720310571468
  0.3488528783293401  0.8509721501263980  0.3277517388873858
  0.3503911125804233  0.8533566275327471  0.6378720310571468
  0.8484065406599102  0.3475613113583590  0.3286169857745326
  0.8463803046431498  0.3499703008868463  0.6492771788184372
  0.8484065406599102  0.8475613411897001  0.3286169857745326
  0.8463803046431498  0.8499703307181873  0.6492771788184372
  0.0989764094930649  0.3949646476176130  0.1663034133616356
  0.0971511713154484  0.3978655983018718  0.4870819277922090
  0.0989764094930649  0.8949646178246344  0.1663034133616356
  0.0971511713154484  0.8978655685088931  0.4870819277922090
  0.6024432010516244  0.4011152595402173  0.1699949551109415
  0.5993000821479650  0.4008279108581423  0.4856077249531016
  0.6024432010516244  0.9011152297472387  0.1699949551109415
  0.5993000821479650  0.9008278810651633  0.4856077249531016
  0.4014540086929593  0.1029545638761943  0.1538139990967680
  0.4022960016277349  0.0996397777744848  0.4620847543569203
  0.4014540086929593  0.6029545937075277  0.1538139990967680
  0.4022960016277349  0.5996398076058187  0.4620847543569203
  0.9004732141052838  0.1084108768793271  0.1342293509881867
  0.9050011835401881  0.0996995367797499  0.4609197233692356
  0.9004732141052838  0.6084109067106608  0.1342293509881867
  0.9050011835401881  0.5996995666110838  0.4609197233692356
  0.3503911125804233  0.3533565977014058  0.1521702202928550
  0.3488528783293401  0.3509721202950574  0.4622905124626160
  0.3503911125804233  0.8533566275327471  0.1521702202928550
  0.3488528783293401  0.8509721501263980  0.4622905124626160
  0.8463803046431498  0.3499703008868463  0.1407650725315640
  0.8484065406599102  0.3475613113583590  0.4614252655754693
  0.8463803046431498  0.8499703307181873  0.1407650725315640
  0.8484065406599102  0.8475613411897001  0.4614252655754693
  0.1481121182876735  0.1534300643830950  0.1630638790141536
  0.1517548926915461  0.1508612617139161  0.4878838097364076
  0.1481121182876735  0.6534300345901236  0.1630638790141536
  0.1517548926915461  0.6508612319209441  0.4878838097364076
  0.6517012430197796  0.1487197583777701  0.1713297803834355
  0.6531234631383994  0.1488270445237418  0.4864282964900988
  0.6517012430197796  0.6487197285847985  0.1713297803834355
  0.6531234631383994  0.6488270147307702  0.4864282964900988
 
  0.00000000E+00  0.00000000E+00  0.00000000E+00
  0.00000000E+00  0.00000000E+00  0.00000000E+00
  0.00000000E+00  0.00000000E+00  0.00000000E+00
  0.00000000E+00  0.00000000E+00  0.00000000E+00
  0.00000000E+00  0.00000000E+00  0.00000000E+00
  0.00000000E+00  0.00000000E+00  0.00000000E+00
  0.00000000E+00  0.00000000E+00  0.00000000E+00
  0.00000000E+00  0.00000000E+00  0.00000000E+00
  0.00000000E+00  0.00000000E+00  0.00000000E+00
  0.00000000E+00  0.00000000E+00  0.00000000E+00
  0.00000000E+00  0.00000000E+00  0.00000000E+00
  0.00000000E+00  0.00000000E+00  0.00000000E+00
  0.00000000E+00  0.00000000E+00  0.00000000E+00
  0.00000000E+00  0.00000000E+00  0.00000000E+00
  0.00000000E+00  0.00000000E+00  0.00000000E+00
  0.00000000E+00  0.00000000E+00  0.00000000E+00
  0.00000000E+00  0.00000000E+00  0.00000000E+00
  0.00000000E+00  0.00000000E+00  0.00000000E+00
  0.00000000E+00  0.00000000E+00  0.00000000E+00
  0.00000000E+00  0.00000000E+00  0.00000000E+00
  0.00000000E+00  0.00000000E+00  0.00000000E+00
  0.00000000E+00  0.00000000E+00  0.00000000E+00
  0.00000000E+00  0.00000000E+00  0.00000000E+00
  0.00000000E+00  0.00000000E+00  0.00000000E+00
  0.00000000E+00  0.00000000E+00  0.00000000E+00
  0.00000000E+00  0.00000000E+00  0.00000000E+00
  0.00000000E+00  0.00000000E+00  0.00000000E+00
  0.00000000E+00  0.00000000E+00  0.00000000E+00
  0.00000000E+00  0.00000000E+00  0.00000000E+00
  0.00000000E+00  0.00000000E+00  0.00000000E+00
  0.00000000E+00  0.00000000E+00  0.00000000E+00
  0.00000000E+00  0.00000000E+00  0.00000000E+00
  0.00000000E+00  0.00000000E+00  0.00000000E+00
  0.00000000E+00  0.00000000E+00  0.00000000E+00
  0.00000000E+00  0.00000000E+00  0.00000000E+00
  0.00000000E+00  0.00000000E+00  0.00000000E+00
  0.00000000E+00  0.00000000E+00  0.00000000E+00
  0.00000000E+00  0.00000000E+00  0.00000000E+00
  0.00000000E+00  0.00000000E+00  0.00000000E+00
  0.00000000E+00  0.00000000E+00  0.00000000E+00
  0.00000000E+00  0.00000000E+00  0.00000000E+00
  0.00000000E+00  0.00000000E+00  0.00000000E+00
  0.00000000E+00  0.00000000E+00  0.00000000E+00
  0.00000000E+00  0.00000000E+00  0.00000000E+00
  0.00000000E+00  0.00000000E+00  0.00000000E+00
  0.00000000E+00  0.00000000E+00  0.00000000E+00
  0.00000000E+00  0.00000000E+00  0.00000000E+00
  0.00000000E+00  0.00000000E+00  0.00000000E+00
  0.00000000E+00  0.00000000E+00  0.00000000E+00
  0.00000000E+00  0.00000000E+00  0.00000000E+00
  0.00000000E+00  0.00000000E+00  0.00000000E+00
  0.00000000E+00  0.00000000E+00  0.00000000E+00
  0.00000000E+00  0.00000000E+00  0.00000000E+00
  0.00000000E+00  0.00000000E+00  0.00000000E+00
  0.00000000E+00  0.00000000E+00  0.00000000E+00
  0.00000000E+00  0.00000000E+00  0.00000000E+00
  0.00000000E+00  0.00000000E+00  0.00000000E+00
  0.00000000E+00  0.00000000E+00  0.00000000E+00
  0.00000000E+00  0.00000000E+00  0.00000000E+00
  0.00000000E+00  0.00000000E+00  0.00000000E+00
  0.00000000E+00  0.00000000E+00  0.00000000E+00
  0.00000000E+00  0.00000000E+00  0.00000000E+00
  0.00000000E+00  0.00000000E+00  0.00000000E+00
  0.00000000E+00  0.00000000E+00  0.00000000E+00
  0.00000000E+00  0.00000000E+00  0.00000000E+00
  0.00000000E+00  0.00000000E+00  0.00000000E+00
  0.00000000E+00  0.00000000E+00  0.00000000E+00
  0.00000000E+00  0.00000000E+00  0.00000000E+00
  0.00000000E+00  0.00000000E+00  0.00000000E+00
  0.00000000E+00  0.00000000E+00  0.00000000E+00
  0.00000000E+00  0.00000000E+00  0.00000000E+00
  0.00000000E+00  0.00000000E+00  0.00000000E+00
  0.00000000E+00  0.00000000E+00  0.00000000E+00
  0.00000000E+00  0.00000000E+00  0.00000000E+00
  0.00000000E+00  0.00000000E+00  0.00000000E+00
  0.00000000E+00  0.00000000E+00  0.00000000E+00
  0.00000000E+00  0.00000000E+00  0.00000000E+00
  0.00000000E+00  0.00000000E+00  0.00000000E+00
  0.00000000E+00  0.00000000E+00  0.00000000E+00
  0.00000000E+00  0.00000000E+00  0.00000000E+00
  0.00000000E+00  0.00000000E+00  0.00000000E+00
  0.00000000E+00  0.00000000E+00  0.00000000E+00
  0.00000000E+00  0.00000000E+00  0.00000000E+00
  0.00000000E+00  0.00000000E+00  0.00000000E+00
  0.00000000E+00  0.00000000E+00  0.00000000E+00
  0.00000000E+00  0.00000000E+00  0.00000000E+00
  0.00000000E+00  0.00000000E+00  0.00000000E+00
  0.00000000E+00  0.00000000E+00  0.00000000E+00
  0.00000000E+00  0.00000000E+00  0.00000000E+00
  0.00000000E+00  0.00000000E+00  0.00000000E+00
  0.00000000E+00  0.00000000E+00  0.00000000E+00
  0.00000000E+00  0.00000000E+00  0.00000000E+00
  0.00000000E+00  0.00000000E+00  0.00000000E+00
  0.00000000E+00  0.00000000E+00  0.00000000E+00
  0.00000000E+00  0.00000000E+00  0.00000000E+00
  0.00000000E+00  0.00000000E+00  0.00000000E+00
  0.00000000E+00  0.00000000E+00  0.00000000E+00
  0.00000000E+00  0.00000000E+00  0.00000000E+00
  0.00000000E+00  0.00000000E+00  0.00000000E+00
  0.00000000E+00  0.00000000E+00  0.00000000E+00
  0.00000000E+00  0.00000000E+00  0.00000000E+00
  0.00000000E+00  0.00000000E+00  0.00000000E+00
  0.00000000E+00  0.00000000E+00  0.00000000E+00
  0.00000000E+00  0.00000000E+00  0.00000000E+00
  0.00000000E+00  0.00000000E+00  0.00000000E+00
  0.00000000E+00  0.00000000E+00  0.00000000E+00
  0.00000000E+00  0.00000000E+00  0.00000000E+00
  0.00000000E+00  0.00000000E+00  0.00000000E+00
  0.00000000E+00  0.00000000E+00  0.00000000E+00
  0.00000000E+00  0.00000000E+00  0.00000000E+00
  0.00000000E+00  0.00000000E+00  0.00000000E+00
  0.00000000E+00  0.00000000E+00  0.00000000E+00
  0.00000000E+00  0.00000000E+00  0.00000000E+00
  0.00000000E+00  0.00000000E+00  0.00000000E+00
  0.00000000E+00  0.00000000E+00  0.00000000E+00
  0.00000000E+00  0.00000000E+00  0.00000000E+00
  0.00000000E+00  0.00000000E+00  0.00000000E+00
  0.00000000E+00  0.00000000E+00  0.00000000E+00
  0.00000000E+00  0.00000000E+00  0.00000000E+00
  0.00000000E+00  0.00000000E+00  0.00000000E+00
  0.00000000E+00  0.00000000E+00  0.00000000E+00
  0.00000000E+00  0.00000000E+00  0.00000000E+00
  0.00000000E+00  0.00000000E+00  0.00000000E+00
  0.00000000E+00  0.00000000E+00  0.00000000E+00
  0.00000000E+00  0.00000000E+00  0.00000000E+00
  0.00000000E+00  0.00000000E+00  0.00000000E+00
  0.00000000E+00  0.00000000E+00  0.00000000E+00
  0.00000000E+00  0.00000000E+00  0.00000000E+00
  0.00000000E+00  0.00000000E+00  0.00000000E+00
  0.00000000E+00  0.00000000E+00  0.00000000E+00
  0.00000000E+00  0.00000000E+00  0.00000000E+00
  0.00000000E+00  0.00000000E+00  0.00000000E+00
  0.00000000E+00  0.00000000E+00  0.00000000E+00
  0.00000000E+00  0.00000000E+00  0.00000000E+00
  0.00000000E+00  0.00000000E+00  0.00000000E+00
  0.00000000E+00  0.00000000E+00  0.00000000E+00
  0.00000000E+00  0.00000000E+00  0.00000000E+00
  0.00000000E+00  0.00000000E+00  0.00000000E+00
  0.00000000E+00  0.00000000E+00  0.00000000E+00
  0.00000000E+00  0.00000000E+00  0.00000000E+00
  0.00000000E+00  0.00000000E+00  0.00000000E+00
  0.00000000E+00  0.00000000E+00  0.00000000E+00
  0.00000000E+00  0.00000000E+00  0.00000000E+00
  0.00000000E+00  0.00000000E+00  0.00000000E+00
  0.00000000E+00  0.00000000E+00  0.00000000E+00
  0.00000000E+00  0.00000000E+00  0.00000000E+00
  0.00000000E+00  0.00000000E+00  0.00000000E+00
  0.00000000E+00  0.00000000E+00  0.00000000E+00
  0.00000000E+00  0.00000000E+00  0.00000000E+00
  0.00000000E+00  0.00000000E+00  0.00000000E+00
  0.00000000E+00  0.00000000E+00  0.00000000E+00
  0.00000000E+00  0.00000000E+00  0.00000000E+00
  0.00000000E+00  0.00000000E+00  0.00000000E+00
  0.00000000E+00  0.00000000E+00  0.00000000E+00
  0.00000000E+00  0.00000000E+00  0.00000000E+00
  0.00000000E+00  0.00000000E+00  0.00000000E+00
  0.00000000E+00  0.00000000E+00  0.00000000E+00
  0.00000000E+00  0.00000000E+00  0.00000000E+00
  0.00000000E+00  0.00000000E+00  0.00000000E+00
  0.00000000E+00  0.00000000E+00  0.00000000E+00
  0.00000000E+00  0.00000000E+00  0.00000000E+00
  0.00000000E+00  0.00000000E+00  0.00000000E+00
  0.00000000E+00  0.00000000E+00  0.00000000E+00
  0.00000000E+00  0.00000000E+00  0.00000000E+00
  0.00000000E+00  0.00000000E+00  0.00000000E+00
  0.00000000E+00  0.00000000E+00  0.00000000E+00
  0.00000000E+00  0.00000000E+00  0.00000000E+00
  0.00000000E+00  0.00000000E+00  0.00000000E+00
