This file is generated by VASPKIT code  
   1.00000000000000     
    12.6406764983999995    0.0000000000000000    0.0000000000000000
     0.0000000000000000   25.2016296386999983    0.0000000000000000
     0.0000000000000000    1.8348134680999999   51.7578896671000024
   Cs   Pb   I 
    36    32   104
Direct
  0.2500000000316405  0.4968970198288928  0.2288996695638285
  0.2500000000316405  0.5003486951040004  0.4791113397143103
  0.2500000000316405  0.9970489313694172  0.2340141074960510
  0.2500000000316405  0.0018302990276819  0.4743389343673267
  0.2500000000316405  0.2654121273255014  0.1284364958860530
  0.2500000000316405  0.2490550686905812  0.3536972409484901
  0.2500000000316405  0.2686091611078390  0.5924865465428952
  0.2500000000316405  0.7473653825154424  0.1259969208531855
  0.2500000000316405  0.7494115114654465  0.3536828478396928
  0.2500000000316405  0.7533736043289944  0.5952849178625534
  0.7500000595854175  0.0158443336392617  0.2539078217299492
  0.7500000595854175  0.0198176487914124  0.4970272649614109
  0.7500000595854175  0.5170736202263682  0.2535552385459756
  0.7500000595854175  0.5209878015648983  0.4965185155439640
  0.7500000595854175  0.2615130858640392  0.1367292288389006
  0.7500000595854175  0.2716124396808292  0.3755084633097821
  0.7500000595854175  0.2630387289909569  0.6006734031751965
  0.7500000595854175  0.7708737335050295  0.3756980843520227
  0.7500000595854175  0.0280270411327610  0.1327928448587470
  0.7500000595854175  0.0340925154608958  0.3703841183929412
  0.7500000595854175  0.0440821867817308  0.6031611133359314
  0.7500000595854175  0.5324679271592205  0.1308451810894946
  0.7500000595854175  0.5346970653227768  0.3705270546001493
  0.7500000595854175  0.5606119546883778  0.6055047186433264
  0.7500000595854175  0.2834252497829267  0.2477799362835597
  0.7500000595854175  0.2862291297345534  0.4901553522018248
  0.7500000595854175  0.7803435947929420  0.2455714631975585
  0.7500000595854175  0.7882507545105744  0.4944948536282219
  0.2500000000316405  0.4854011708677954  0.3590709148292857
  0.2500000000316405  0.9752801003740812  0.1266163964967323
  0.2500000000316405  0.9850207070682165  0.3593016927325871
  0.2500000000316405  0.9893588610147548  0.5969417849178428
  0.2500000000316405  0.2313111887097848  0.2381978314483311
  0.2500000000316405  0.2410888072165667  0.4813928751132081
  0.2500000000316405  0.7337584080197294  0.2385280228591189
  0.2500000000316405  0.7361866810553473  0.4826555655917707
  0.0005651135637108  0.3839013224923144  0.3027875742618539
  0.0021019170251345  0.3888508985639320  0.5523774327864017
  0.9989999324943951  0.8825742610551930  0.3028689361249713
  0.0031833132972362  0.8848585686020970  0.5513500022286687
  0.9964703743875534  0.1330929379153999  0.1797282098385553
  0.0004618313158378  0.1362473558479182  0.4263249894440124
  0.9960528530934925  0.6316172821231414  0.1777398695729530
  0.0003797871560829  0.6365383151879894  0.4262659954985707
 -0.0004212180757242  0.1326944428972202  0.3034790341464406
  0.0015673196076405  0.1403179604066397  0.5500982648306509
 -0.0000057633221137  0.6317464288865720  0.3031427803904763
  0.0010171279650757  0.6397639588715351  0.5518397938040454
  0.0011571720935953  0.3814024925605239  0.1769186461868646
  0.0003524730381833  0.3879300197028327  0.4261771345033293
  0.9985067034228908  0.8755079309599378  0.1776015411041945
  0.9992884003726695  0.8858878713446534  0.4264278592056123
  0.4994348864204654  0.3839013224923144  0.3027875742618539
  0.4978980829590417  0.3888508985639320  0.5523774327864017
  0.5010000674897811  0.8825742610551930  0.3028689361249713
  0.4968166866869400  0.8848585686020970  0.5513500022286687
  0.5035296255966228  0.1330929379153999  0.1797282098385553
  0.4995381686683386  0.1362473558479182  0.4263249894440124
  0.5039471468906838  0.6316172821231414  0.1777398695729530
  0.4996202128280933  0.6365383151879894  0.4262659954985707
  0.5004212180599004  0.1326944428972202  0.3034790341464406
  0.4984326803765356  0.1403179604066397  0.5500982648306509
  0.5000057633062899  0.6317464288865720  0.3031427803904763
  0.4989828720191005  0.6397639588715351  0.5518397938040454
  0.4988428278905809  0.3814024925605239  0.1769186461868646
  0.4996475269459858  0.3879300197028327  0.4261771345033293
  0.5014932965612854  0.8755079309599378  0.1776015411041945
  0.5007115996115067  0.8858878713446534  0.4264278592056123
  0.2500000000316405  0.1172024581762598  0.3147556840582345
  0.2500000000316405  0.1283114710721067  0.5614023747439587
  0.2500000000316405  0.6181568122904494  0.3148039983601822
  0.2500000000316405  0.6264276745146311  0.5508155646994938
  0.2500000000316405  0.3586939530153235  0.1879564738218352
  0.2500000000316405  0.3720654779463436  0.4362843900141053
  0.2500000000316405  0.8708008926542713  0.1906036380334766
  0.2500000000316405  0.8687458518366972  0.4361491774024663
  0.7500000595854175  0.3971733308201330  0.1757699787831893
  0.7500000595854175  0.4021470902038684  0.4152790872832573
  0.7500000595854175  0.8927402736668578  0.1730959107499518
  0.7500000595854175  0.9027629644078589  0.4148307295834200
  0.7500000595854175  0.1494158411777808  0.2924486346892415
  0.7500000595854175  0.1532272823768197  0.5388928807013716
  0.7500000595854175  0.6491553124194506  0.2930763116898891
  0.7500000595854175  0.6519170600980209  0.5397646388734205
  0.7500000595854175  0.1156220856708404  0.1920280040830000
  0.7500000595854175  0.1140770622652483  0.4343341671457769
  0.7500000595854175  0.6167416339860119  0.1912634362195151
  0.7500000595854175  0.6154677292446254  0.4336593985985941
  0.7500000595854175  0.3627563382627276  0.3114681150321314
  0.7500000595854175  0.3750471774995247  0.5491958659213242
  0.7500000595854175  0.8607707330196492  0.3107577529113612
  0.7500000595854175  0.8799440258961662  0.5559151136932270
  0.2500000000316405  0.4063028123916985  0.2947588597262978
  0.2500000000316405  0.4009526650292963  0.5434095089552333
  0.2500000000316405  0.9035748573610872  0.2961982983841921
  0.2500000000316405  0.9038837285370523  0.5361428722172975
  0.2500000000316405  0.1437264626809500  0.1753922326808411
  0.2500000000316405  0.1588990404845226  0.4180760975124677
  0.2500000000316405  0.6393423740901553  0.1798954178011112
  0.2500000000316405  0.6581787891206913  0.4176520086844085
  0.0027941799786798  0.3558992181869433  0.1198759809083377
  0.0374916899036576  0.3608830713209282  0.3650140079075515
  0.0055178680165049  0.3569600839474666  0.6093869565081795
  0.0412338018745014  0.8652087105713535  0.1198263618672255
  0.0356580313374168  0.8608184568622748  0.3652765443441927
  0.0534874712965037  0.8719968648285291  0.6087736751705699
  0.0362629102151986  0.1088882445114525  0.2443631269738327
  0.0382756374279188  0.1143603285822733  0.4868031418746688
  0.0334930854074091  0.6078371489690116  0.2446058861371299
  0.0333584405042533  0.6132987133573455  0.4857898872966752
  0.9645906991205763  0.1509038831443904  0.1209546398026909
  0.9620588046825077  0.1589334333472683  0.3644517740170835
  0.9660554445437869  0.1520179831822239  0.6092830830142946
  0.9770066785885301  0.6524457604534176  0.1206454068539194
  0.9624458214680939  0.6590678472716636  0.3642403519075902
  0.9875542549938842  0.6562827573467854  0.6089242370492629
  0.9674235820051612  0.4058760783181691  0.2427837156488197
  0.9697503822879420  0.4095518958466981  0.4853509012918594
  0.9665109878714920  0.9051522401433127  0.2429176706087474
  0.9644847774572906  0.9091497518224395  0.4855014829298874
  0.9613892781564167  0.5071496282878041  0.3165766101654059
  0.9610254383479038  0.5132097643213448  0.5567478715289219
  0.9612807717570545  0.0073898758923300  0.3160018548743364
  0.9767117834268378  0.0126778519587115  0.5572015824884983
  0.9683259793061272  0.2554912664782768  0.1939007570373181
  0.9636447169843849  0.2605811223691333  0.4376153181639540
  0.9834452490187888  0.7538040340054579  0.1940706719227949
  0.9595685502912945  0.7606873402992680  0.4387545241845378
  0.0221731541901096  0.0065867995815100  0.1719818060075255
  0.0390088929640377  0.0121616243999214  0.4136592746070876
  0.0292992028681921  0.5066047208840605  0.1689413773082194
  0.0375083091330253  0.5125321012581208  0.4131367861695329
  0.0378438892442424  0.2589083274191839  0.2915822601562932
  0.0286264068253625  0.2648181112151871  0.5360063083598781
  0.0361992851581919  0.7588846939848657  0.2916631188248706
  0.0310689796967895  0.7636027323689718  0.5365603262234373
  0.5354093009110713  0.1509038831443904  0.1209546398026909
  0.5379411953491399  0.1589334333472683  0.3644517740170835
  0.5339445554878607  0.1520179831822239  0.6092830830142946
  0.5229933214431175  0.6524457604534176  0.1206454068539194
  0.5375541785635537  0.6590678472716636  0.3642403519075902
  0.5124457450377634  0.6562827573467854  0.6089242370492629
  0.5325764180264864  0.4058760783181691  0.2427837156488197
  0.5302496177437056  0.4095518958466981  0.4853509012918594
  0.5334890121601555  0.9051522401433127  0.2429176706087474
  0.5355152225743570  0.9091497518224395  0.4855014829298874
  0.4972058088510342  0.3558992181869433  0.1198759809083377
  0.4625082989260564  0.3608830713209282  0.3650140079075515
  0.4944821208132091  0.3569600839474666  0.6093869565081795
  0.4587661869552125  0.8652087105713535  0.1198263618672255
  0.4643419574922972  0.8608184568622748  0.3652765443441927
  0.4465125175332103  0.8719968648285291  0.6087736751705699
  0.4637370786145153  0.1088882445114525  0.2443631269738327
  0.4617243514017952  0.1143603285822733  0.4868031418746688
  0.4665069034223050  0.6078371489690116  0.2446058861371299
  0.4666415483254606  0.6132987133573455  0.4857898872966752
  0.4778268346396044  0.0065867995815100  0.1719818060075255
  0.4609910958656762  0.0121616243999214  0.4136592746070876
  0.4707007859615219  0.5066047208840605  0.1689413773082194
  0.4624916796966886  0.5125321012581208  0.4131367861695329
  0.4621560995854715  0.2589083274191839  0.2915822601562932
  0.4713735820043515  0.2648181112151871  0.5360063083598781
  0.4638007036715222  0.7588846939848657  0.2916631188248706
  0.4689310091329245  0.7636027323689718  0.5365603262234373
  0.5386107218752308  0.5071496282878041  0.3165766101654059
  0.5389745616837438  0.5132097643213448  0.5567478715289219
  0.5387192282745931  0.0073898758923300  0.3160018548743364
  0.5232882166048097  0.0126778519587115  0.5572015824884983
  0.5316740207255204  0.2554912664782768  0.1939007570373181
  0.5363552830472627  0.2605811223691333  0.4376153181639540
  0.5165547510128587  0.7538040340054579  0.1940706719227949
  0.5404314497403531  0.7606873402992680  0.4387545241845378
 
  0.00000000E+00  0.00000000E+00  0.00000000E+00
  0.00000000E+00  0.00000000E+00  0.00000000E+00
  0.00000000E+00  0.00000000E+00  0.00000000E+00
  0.00000000E+00  0.00000000E+00  0.00000000E+00
  0.00000000E+00  0.00000000E+00  0.00000000E+00
  0.00000000E+00  0.00000000E+00  0.00000000E+00
  0.00000000E+00  0.00000000E+00  0.00000000E+00
  0.00000000E+00  0.00000000E+00  0.00000000E+00
  0.00000000E+00  0.00000000E+00  0.00000000E+00
  0.00000000E+00  0.00000000E+00  0.00000000E+00
  0.00000000E+00  0.00000000E+00  0.00000000E+00
  0.00000000E+00  0.00000000E+00  0.00000000E+00
  0.00000000E+00  0.00000000E+00  0.00000000E+00
  0.00000000E+00  0.00000000E+00  0.00000000E+00
  0.00000000E+00  0.00000000E+00  0.00000000E+00
  0.00000000E+00  0.00000000E+00  0.00000000E+00
  0.00000000E+00  0.00000000E+00  0.00000000E+00
  0.00000000E+00  0.00000000E+00  0.00000000E+00
  0.00000000E+00  0.00000000E+00  0.00000000E+00
  0.00000000E+00  0.00000000E+00  0.00000000E+00
  0.00000000E+00  0.00000000E+00  0.00000000E+00
  0.00000000E+00  0.00000000E+00  0.00000000E+00
  0.00000000E+00  0.00000000E+00  0.00000000E+00
  0.00000000E+00  0.00000000E+00  0.00000000E+00
  0.00000000E+00  0.00000000E+00  0.00000000E+00
  0.00000000E+00  0.00000000E+00  0.00000000E+00
  0.00000000E+00  0.00000000E+00  0.00000000E+00
  0.00000000E+00  0.00000000E+00  0.00000000E+00
  0.00000000E+00  0.00000000E+00  0.00000000E+00
  0.00000000E+00  0.00000000E+00  0.00000000E+00
  0.00000000E+00  0.00000000E+00  0.00000000E+00
  0.00000000E+00  0.00000000E+00  0.00000000E+00
  0.00000000E+00  0.00000000E+00  0.00000000E+00
  0.00000000E+00  0.00000000E+00  0.00000000E+00
  0.00000000E+00  0.00000000E+00  0.00000000E+00
  0.00000000E+00  0.00000000E+00  0.00000000E+00
  0.00000000E+00  0.00000000E+00  0.00000000E+00
  0.00000000E+00  0.00000000E+00  0.00000000E+00
  0.00000000E+00  0.00000000E+00  0.00000000E+00
  0.00000000E+00  0.00000000E+00  0.00000000E+00
  0.00000000E+00  0.00000000E+00  0.00000000E+00
  0.00000000E+00  0.00000000E+00  0.00000000E+00
  0.00000000E+00  0.00000000E+00  0.00000000E+00
  0.00000000E+00  0.00000000E+00  0.00000000E+00
  0.00000000E+00  0.00000000E+00  0.00000000E+00
  0.00000000E+00  0.00000000E+00  0.00000000E+00
  0.00000000E+00  0.00000000E+00  0.00000000E+00
  0.00000000E+00  0.00000000E+00  0.00000000E+00
  0.00000000E+00  0.00000000E+00  0.00000000E+00
  0.00000000E+00  0.00000000E+00  0.00000000E+00
  0.00000000E+00  0.00000000E+00  0.00000000E+00
  0.00000000E+00  0.00000000E+00  0.00000000E+00
  0.00000000E+00  0.00000000E+00  0.00000000E+00
  0.00000000E+00  0.00000000E+00  0.00000000E+00
  0.00000000E+00  0.00000000E+00  0.00000000E+00
  0.00000000E+00  0.00000000E+00  0.00000000E+00
  0.00000000E+00  0.00000000E+00  0.00000000E+00
  0.00000000E+00  0.00000000E+00  0.00000000E+00
  0.00000000E+00  0.00000000E+00  0.00000000E+00
  0.00000000E+00  0.00000000E+00  0.00000000E+00
  0.00000000E+00  0.00000000E+00  0.00000000E+00
  0.00000000E+00  0.00000000E+00  0.00000000E+00
  0.00000000E+00  0.00000000E+00  0.00000000E+00
  0.00000000E+00  0.00000000E+00  0.00000000E+00
  0.00000000E+00  0.00000000E+00  0.00000000E+00
  0.00000000E+00  0.00000000E+00  0.00000000E+00
  0.00000000E+00  0.00000000E+00  0.00000000E+00
  0.00000000E+00  0.00000000E+00  0.00000000E+00
  0.00000000E+00  0.00000000E+00  0.00000000E+00
  0.00000000E+00  0.00000000E+00  0.00000000E+00
  0.00000000E+00  0.00000000E+00  0.00000000E+00
  0.00000000E+00  0.00000000E+00  0.00000000E+00
  0.00000000E+00  0.00000000E+00  0.00000000E+00
  0.00000000E+00  0.00000000E+00  0.00000000E+00
  0.00000000E+00  0.00000000E+00  0.00000000E+00
  0.00000000E+00  0.00000000E+00  0.00000000E+00
  0.00000000E+00  0.00000000E+00  0.00000000E+00
  0.00000000E+00  0.00000000E+00  0.00000000E+00
  0.00000000E+00  0.00000000E+00  0.00000000E+00
  0.00000000E+00  0.00000000E+00  0.00000000E+00
  0.00000000E+00  0.00000000E+00  0.00000000E+00
  0.00000000E+00  0.00000000E+00  0.00000000E+00
  0.00000000E+00  0.00000000E+00  0.00000000E+00
  0.00000000E+00  0.00000000E+00  0.00000000E+00
  0.00000000E+00  0.00000000E+00  0.00000000E+00
  0.00000000E+00  0.00000000E+00  0.00000000E+00
  0.00000000E+00  0.00000000E+00  0.00000000E+00
  0.00000000E+00  0.00000000E+00  0.00000000E+00
  0.00000000E+00  0.00000000E+00  0.00000000E+00
  0.00000000E+00  0.00000000E+00  0.00000000E+00
  0.00000000E+00  0.00000000E+00  0.00000000E+00
  0.00000000E+00  0.00000000E+00  0.00000000E+00
  0.00000000E+00  0.00000000E+00  0.00000000E+00
  0.00000000E+00  0.00000000E+00  0.00000000E+00
  0.00000000E+00  0.00000000E+00  0.00000000E+00
  0.00000000E+00  0.00000000E+00  0.00000000E+00
  0.00000000E+00  0.00000000E+00  0.00000000E+00
  0.00000000E+00  0.00000000E+00  0.00000000E+00
  0.00000000E+00  0.00000000E+00  0.00000000E+00
  0.00000000E+00  0.00000000E+00  0.00000000E+00
  0.00000000E+00  0.00000000E+00  0.00000000E+00
  0.00000000E+00  0.00000000E+00  0.00000000E+00
  0.00000000E+00  0.00000000E+00  0.00000000E+00
  0.00000000E+00  0.00000000E+00  0.00000000E+00
  0.00000000E+00  0.00000000E+00  0.00000000E+00
  0.00000000E+00  0.00000000E+00  0.00000000E+00
  0.00000000E+00  0.00000000E+00  0.00000000E+00
  0.00000000E+00  0.00000000E+00  0.00000000E+00
  0.00000000E+00  0.00000000E+00  0.00000000E+00
  0.00000000E+00  0.00000000E+00  0.00000000E+00
  0.00000000E+00  0.00000000E+00  0.00000000E+00
  0.00000000E+00  0.00000000E+00  0.00000000E+00
  0.00000000E+00  0.00000000E+00  0.00000000E+00
  0.00000000E+00  0.00000000E+00  0.00000000E+00
  0.00000000E+00  0.00000000E+00  0.00000000E+00
  0.00000000E+00  0.00000000E+00  0.00000000E+00
  0.00000000E+00  0.00000000E+00  0.00000000E+00
  0.00000000E+00  0.00000000E+00  0.00000000E+00
  0.00000000E+00  0.00000000E+00  0.00000000E+00
  0.00000000E+00  0.00000000E+00  0.00000000E+00
  0.00000000E+00  0.00000000E+00  0.00000000E+00
  0.00000000E+00  0.00000000E+00  0.00000000E+00
  0.00000000E+00  0.00000000E+00  0.00000000E+00
  0.00000000E+00  0.00000000E+00  0.00000000E+00
  0.00000000E+00  0.00000000E+00  0.00000000E+00
  0.00000000E+00  0.00000000E+00  0.00000000E+00
  0.00000000E+00  0.00000000E+00  0.00000000E+00
  0.00000000E+00  0.00000000E+00  0.00000000E+00
  0.00000000E+00  0.00000000E+00  0.00000000E+00
  0.00000000E+00  0.00000000E+00  0.00000000E+00
  0.00000000E+00  0.00000000E+00  0.00000000E+00
  0.00000000E+00  0.00000000E+00  0.00000000E+00
  0.00000000E+00  0.00000000E+00  0.00000000E+00
  0.00000000E+00  0.00000000E+00  0.00000000E+00
  0.00000000E+00  0.00000000E+00  0.00000000E+00
  0.00000000E+00  0.00000000E+00  0.00000000E+00
  0.00000000E+00  0.00000000E+00  0.00000000E+00
  0.00000000E+00  0.00000000E+00  0.00000000E+00
  0.00000000E+00  0.00000000E+00  0.00000000E+00
  0.00000000E+00  0.00000000E+00  0.00000000E+00
  0.00000000E+00  0.00000000E+00  0.00000000E+00
  0.00000000E+00  0.00000000E+00  0.00000000E+00
  0.00000000E+00  0.00000000E+00  0.00000000E+00
  0.00000000E+00  0.00000000E+00  0.00000000E+00
  0.00000000E+00  0.00000000E+00  0.00000000E+00
  0.00000000E+00  0.00000000E+00  0.00000000E+00
  0.00000000E+00  0.00000000E+00  0.00000000E+00
  0.00000000E+00  0.00000000E+00  0.00000000E+00
  0.00000000E+00  0.00000000E+00  0.00000000E+00
  0.00000000E+00  0.00000000E+00  0.00000000E+00
  0.00000000E+00  0.00000000E+00  0.00000000E+00
  0.00000000E+00  0.00000000E+00  0.00000000E+00
  0.00000000E+00  0.00000000E+00  0.00000000E+00
  0.00000000E+00  0.00000000E+00  0.00000000E+00
  0.00000000E+00  0.00000000E+00  0.00000000E+00
  0.00000000E+00  0.00000000E+00  0.00000000E+00
  0.00000000E+00  0.00000000E+00  0.00000000E+00
  0.00000000E+00  0.00000000E+00  0.00000000E+00
  0.00000000E+00  0.00000000E+00  0.00000000E+00
  0.00000000E+00  0.00000000E+00  0.00000000E+00
  0.00000000E+00  0.00000000E+00  0.00000000E+00
  0.00000000E+00  0.00000000E+00  0.00000000E+00
  0.00000000E+00  0.00000000E+00  0.00000000E+00
  0.00000000E+00  0.00000000E+00  0.00000000E+00
  0.00000000E+00  0.00000000E+00  0.00000000E+00
  0.00000000E+00  0.00000000E+00  0.00000000E+00
  0.00000000E+00  0.00000000E+00  0.00000000E+00
  0.00000000E+00  0.00000000E+00  0.00000000E+00
  0.00000000E+00  0.00000000E+00  0.00000000E+00
  0.00000000E+00  0.00000000E+00  0.00000000E+00
  0.00000000E+00  0.00000000E+00  0.00000000E+00
  0.00000000E+00  0.00000000E+00  0.00000000E+00
