This file is generated by VASPKIT code  
   1.00000000000000     
    12.6406764983999995    0.0000000000000000    0.0000000000000000
     0.0000000000000000   18.2475891113000017    0.0000000000000000
     0.0000000000000000    0.0000000000000000   50.0000000000000000
   Cs   Pb   I 
    20    28    76
Direct
  0.2500000000000000  0.4671413592639337  0.6970715122238871
  0.2500000000000000  0.9671413302639351  0.6970715122238871
  0.2500000000000000  0.4608229413414126  0.3442241751281128
  0.2500000000000000  0.9608229123414136  0.3442241751281128
  0.2500000000000000  0.4641573532128886  0.5169988398264598
  0.2500000000000000  0.9641573242128898  0.5169988398264598
  0.7500000000000000  0.0358426217871128  0.5259448161735387
  0.7500000000000000  0.5358426167871089  0.5259448161735387
  0.7500000000000000  0.0391770336585891  0.6987194818718894
  0.7500000000000000  0.5391770286585851  0.6987194818718894
  0.7500000000000000  0.0328586157360678  0.3458720837761137
  0.7500000000000000  0.5328586107360636  0.3458720837761137
  0.7500000000000000  0.2842699543004367  0.6046671653645991
  0.7500000000000000  0.7842699543004364  0.6046671653645991
  0.7500000000000000  0.2854385397447138  0.4296149561654076
  0.7500000000000000  0.7854385397447142  0.4296149561654076
  0.2500000000000000  0.2145614602552860  0.6133286998345908
  0.2500000000000000  0.7145614602552858  0.6133286998345908
  0.2500000000000000  0.2157300456995633  0.4382764916354029
  0.2500000000000000  0.7157300456995636  0.4382764916354029
  0.0007744923156839 -0.0015532206938751  0.6084088237866673
  0.0007744923156839  0.4984467793061250  0.6084088237866673
  0.0092788927723762 -0.0048935326727398  0.2672555482105949
 -0.0092788927723762  0.0048935326727398  0.7756880777894009
  0.0092788927723762  0.4951064673272602  0.2672555482105949
 -0.0092788927723762  0.5048935326727400  0.7756880777894009
 -0.0007744923156839  0.0015532206938751  0.4345348032133325
 -0.0007744923156839  0.5015532206938752  0.4345348032133325
  0.0000000000000000  0.2500000000000000  0.5214717980000003
  0.0000000000000000  0.7500000000000000  0.5214717980000003
  0.0032846318757087  0.2465536237477353  0.6951894825174804
  0.0032846318757087  0.7465536237477353  0.6951894825174804
 -0.0032846318757087  0.2534463762522648  0.3477542334825228
 -0.0032846318757087  0.7534463762522647  0.3477542334825228
  0.4992255076843161 -0.0015532206938751  0.6084088237866673
  0.4992255076843161  0.4984467793061250  0.6084088237866673
  0.4907211072276239 -0.0048935326727398  0.2672555482105949
  0.5092788927723760  0.0048935326727398  0.7756880777894009
  0.4907211072276239  0.4951064673272602  0.2672555482105949
  0.5092788927723760  0.5048935326727400  0.7756880777894009
  0.5007744923156838  0.0015532206938751  0.4345348032133325
  0.5007744923156838  0.5015532206938752  0.4345348032133325
  0.5000000000000000  0.2500000000000000  0.5214717980000003
  0.5000000000000000  0.7500000000000000  0.5214717980000003
  0.4967153681242913  0.2465536237477353  0.6951894825174804
  0.4967153681242913  0.7465536237477353  0.6951894825174804
  0.5032846318757086  0.2534463762522648  0.3477542334825228
  0.5032846318757086  0.7534463762522647  0.3477542334825228
  0.2500000000000000  0.2549874074593529  0.5358335883728681
  0.2500000000000000  0.7549874074593529  0.5358335883728681
  0.2500000000000000  0.2525271099461968  0.7098422209955325
  0.2500000000000000  0.7525271099461962  0.7098422209955325
  0.2500000000000000  0.2524156613968067  0.3620724220135499
  0.2500000000000000  0.7524156613968067  0.3620724220135499
  0.7500000000000000  0.2475843386031934  0.6808712349864523
  0.7500000000000000  0.7475843386031933  0.6808712349864523
  0.7500000000000000  0.2474728900538033  0.3331014650044684
  0.7500000000000000  0.7474728900538038  0.3331014650044684
  0.7500000000000000  0.2450125925406470  0.5071100686271340
  0.7500000000000000  0.7450125925406471  0.5071100686271340
  0.7500000000000000  0.4950653231398520  0.6218268231855087
  0.7500000000000000  0.9950653831398502  0.6218268231855087
  0.7500000000000000  0.4972497952907577  0.2667529773610313
  0.7500000000000000  0.4829960116860589  0.7949656430763450
  0.7500000000000000  0.9972498552907557  0.2667529773610313
  0.7500000000000000  0.9829960716860564  0.7949656430763450
  0.7500000000000000  0.4942294088207935  0.4490992394498253
  0.7500000000000000  0.9942294688207914  0.4490992394498253
  0.2500000000000000  0.0057705941792103  0.5938444165501734
  0.2500000000000000  0.5057705911792064  0.5938444165501734
  0.2500000000000000  0.0170039913139450  0.2479779839236548
  0.2500000000000000  0.0027502077092459  0.7761906196389657
  0.2500000000000000  0.5170039883139415  0.2479779839236548
  0.2500000000000000  0.5027502047092421  0.7761906196389657
  0.2500000000000000  0.0049346798601518  0.4211168628144925
  0.2500000000000000  0.5049346768601477  0.4211168628144925
  0.0413400322397003  0.1008654482500985  0.6614315728157616
  0.0413400322397003  0.6008654782501012  0.6614315728157616
  0.0311152177662228  0.0917540820682225  0.3161750619207602
  0.0311152177662228  0.5917541120682253  0.3161750619207602
  0.0399146379151979  0.1012016470349000  0.4868283184038281
  0.0399146379151980  0.6012016770349027  0.4868283184038281
  0.9600853210848025  0.3987983529651001  0.5561153375961707
  0.9600853210848025  0.8987983229650973  0.5561153375961707
  0.9688847412337777  0.4082459179317774  0.7267685350792441
  0.9688847412337777  0.9082458879317747  0.7267685350792441
  0.9586599267602997  0.3991345517499014  0.3815121141842356
  0.9586599267602997  0.8991345217498988  0.3815121141842356
  0.9606429287938177  0.1478422799475002  0.5738684732331183
  0.9606429287938177  0.6478422499474978  0.5738684732331183
  0.9461131553214118  0.1502800170276811  0.7487530954027255
  0.9461131553214117  0.6502799870276783  0.7487530954027255
  0.9592602208973682  0.1493721798375813  0.3995229774628934
  0.9592602208973682  0.6493721498375786  0.3995229774628934
  0.0407397381026319  0.3506278201624186  0.6434206495371061
  0.0407397381026319  0.8506278501624214  0.6434206495371060
  0.0538868036785883  0.3497199829723189  0.2941905905972755
  0.0538868036785883  0.8497200129723217  0.2941905905972755
  0.0393570302061825  0.3521577200524998  0.4690751827668804
  0.0393570302061825  0.8521577500525022  0.4690751827668804
  0.5399146199152033  0.3987983529651001  0.5561153375961707
  0.5399146199152033  0.8987983229650973  0.5561153375961707
  0.5311151997662281  0.4082459179317774  0.7267685350792441
  0.5311151997662281  0.9082458879317747  0.7267685350792441
  0.5413400142397061  0.3991345517499014  0.3815121141842356
  0.5413400142397061  0.8991345217498988  0.3815121141842356
  0.4586599857602939  0.1008654482500985  0.6614315728157616
  0.4586599857602939  0.6008654782501012  0.6614315728157616
  0.4688848002337716  0.0917540820682225  0.3161750619207602
  0.4688848002337716  0.5917541120682253  0.3161750619207602
  0.4600853800847966  0.1012016470349000  0.4868283184038281
  0.4600853800847966  0.6012016770349027  0.4868283184038281
  0.4592602798973624  0.3506278201624186  0.6434206495371061
  0.4592602798973624  0.8506278501624214  0.6434206495371060
  0.4461132143214060  0.3497199829723189  0.2941905905972755
  0.4461132143214060  0.8497200129723217  0.2941905905972755
  0.4606429877938117  0.3521577200524998  0.4690751827668804
  0.4606429877938117  0.8521577500525022  0.4690751827668804
  0.5393570122061880  0.1478422799475002  0.5738684732331183
  0.5393570122061880  0.6478422499474978  0.5738684732331183
  0.5538867856785941  0.1502800170276811  0.7487530954027255
  0.5538867856785940  0.6502799870276783  0.7487530954027255
  0.5407397201026376  0.1493721798375813  0.3995229774628934
  0.5407397201026376  0.6493721498375786  0.3995229774628934
 
  0.00000000E+00  0.00000000E+00  0.00000000E+00
  0.00000000E+00  0.00000000E+00  0.00000000E+00
  0.00000000E+00  0.00000000E+00  0.00000000E+00
  0.00000000E+00  0.00000000E+00  0.00000000E+00
  0.00000000E+00  0.00000000E+00  0.00000000E+00
  0.00000000E+00  0.00000000E+00  0.00000000E+00
  0.00000000E+00  0.00000000E+00  0.00000000E+00
  0.00000000E+00  0.00000000E+00  0.00000000E+00
  0.00000000E+00  0.00000000E+00  0.00000000E+00
  0.00000000E+00  0.00000000E+00  0.00000000E+00
  0.00000000E+00  0.00000000E+00  0.00000000E+00
  0.00000000E+00  0.00000000E+00  0.00000000E+00
  0.00000000E+00  0.00000000E+00  0.00000000E+00
  0.00000000E+00  0.00000000E+00  0.00000000E+00
  0.00000000E+00  0.00000000E+00  0.00000000E+00
  0.00000000E+00  0.00000000E+00  0.00000000E+00
  0.00000000E+00  0.00000000E+00  0.00000000E+00
  0.00000000E+00  0.00000000E+00  0.00000000E+00
  0.00000000E+00  0.00000000E+00  0.00000000E+00
  0.00000000E+00  0.00000000E+00  0.00000000E+00
  0.00000000E+00  0.00000000E+00  0.00000000E+00
  0.00000000E+00  0.00000000E+00  0.00000000E+00
  0.00000000E+00  0.00000000E+00  0.00000000E+00
  0.00000000E+00  0.00000000E+00  0.00000000E+00
  0.00000000E+00  0.00000000E+00  0.00000000E+00
  0.00000000E+00  0.00000000E+00  0.00000000E+00
  0.00000000E+00  0.00000000E+00  0.00000000E+00
  0.00000000E+00  0.00000000E+00  0.00000000E+00
  0.00000000E+00  0.00000000E+00  0.00000000E+00
  0.00000000E+00  0.00000000E+00  0.00000000E+00
  0.00000000E+00  0.00000000E+00  0.00000000E+00
  0.00000000E+00  0.00000000E+00  0.00000000E+00
  0.00000000E+00  0.00000000E+00  0.00000000E+00
  0.00000000E+00  0.00000000E+00  0.00000000E+00
  0.00000000E+00  0.00000000E+00  0.00000000E+00
  0.00000000E+00  0.00000000E+00  0.00000000E+00
  0.00000000E+00  0.00000000E+00  0.00000000E+00
  0.00000000E+00  0.00000000E+00  0.00000000E+00
  0.00000000E+00  0.00000000E+00  0.00000000E+00
  0.00000000E+00  0.00000000E+00  0.00000000E+00
  0.00000000E+00  0.00000000E+00  0.00000000E+00
  0.00000000E+00  0.00000000E+00  0.00000000E+00
  0.00000000E+00  0.00000000E+00  0.00000000E+00
  0.00000000E+00  0.00000000E+00  0.00000000E+00
  0.00000000E+00  0.00000000E+00  0.00000000E+00
  0.00000000E+00  0.00000000E+00  0.00000000E+00
  0.00000000E+00  0.00000000E+00  0.00000000E+00
  0.00000000E+00  0.00000000E+00  0.00000000E+00
  0.00000000E+00  0.00000000E+00  0.00000000E+00
  0.00000000E+00  0.00000000E+00  0.00000000E+00
  0.00000000E+00  0.00000000E+00  0.00000000E+00
  0.00000000E+00  0.00000000E+00  0.00000000E+00
  0.00000000E+00  0.00000000E+00  0.00000000E+00
  0.00000000E+00  0.00000000E+00  0.00000000E+00
  0.00000000E+00  0.00000000E+00  0.00000000E+00
  0.00000000E+00  0.00000000E+00  0.00000000E+00
  0.00000000E+00  0.00000000E+00  0.00000000E+00
  0.00000000E+00  0.00000000E+00  0.00000000E+00
  0.00000000E+00  0.00000000E+00  0.00000000E+00
  0.00000000E+00  0.00000000E+00  0.00000000E+00
  0.00000000E+00  0.00000000E+00  0.00000000E+00
  0.00000000E+00  0.00000000E+00  0.00000000E+00
  0.00000000E+00  0.00000000E+00  0.00000000E+00
  0.00000000E+00  0.00000000E+00  0.00000000E+00
  0.00000000E+00  0.00000000E+00  0.00000000E+00
  0.00000000E+00  0.00000000E+00  0.00000000E+00
  0.00000000E+00  0.00000000E+00  0.00000000E+00
  0.00000000E+00  0.00000000E+00  0.00000000E+00
  0.00000000E+00  0.00000000E+00  0.00000000E+00
  0.00000000E+00  0.00000000E+00  0.00000000E+00
  0.00000000E+00  0.00000000E+00  0.00000000E+00
  0.00000000E+00  0.00000000E+00  0.00000000E+00
  0.00000000E+00  0.00000000E+00  0.00000000E+00
  0.00000000E+00  0.00000000E+00  0.00000000E+00
  0.00000000E+00  0.00000000E+00  0.00000000E+00
  0.00000000E+00  0.00000000E+00  0.00000000E+00
  0.00000000E+00  0.00000000E+00  0.00000000E+00
  0.00000000E+00  0.00000000E+00  0.00000000E+00
  0.00000000E+00  0.00000000E+00  0.00000000E+00
  0.00000000E+00  0.00000000E+00  0.00000000E+00
  0.00000000E+00  0.00000000E+00  0.00000000E+00
  0.00000000E+00  0.00000000E+00  0.00000000E+00
  0.00000000E+00  0.00000000E+00  0.00000000E+00
  0.00000000E+00  0.00000000E+00  0.00000000E+00
  0.00000000E+00  0.00000000E+00  0.00000000E+00
  0.00000000E+00  0.00000000E+00  0.00000000E+00
  0.00000000E+00  0.00000000E+00  0.00000000E+00
  0.00000000E+00  0.00000000E+00  0.00000000E+00
  0.00000000E+00  0.00000000E+00  0.00000000E+00
  0.00000000E+00  0.00000000E+00  0.00000000E+00
  0.00000000E+00  0.00000000E+00  0.00000000E+00
  0.00000000E+00  0.00000000E+00  0.00000000E+00
  0.00000000E+00  0.00000000E+00  0.00000000E+00
  0.00000000E+00  0.00000000E+00  0.00000000E+00
  0.00000000E+00  0.00000000E+00  0.00000000E+00
  0.00000000E+00  0.00000000E+00  0.00000000E+00
  0.00000000E+00  0.00000000E+00  0.00000000E+00
  0.00000000E+00  0.00000000E+00  0.00000000E+00
  0.00000000E+00  0.00000000E+00  0.00000000E+00
  0.00000000E+00  0.00000000E+00  0.00000000E+00
  0.00000000E+00  0.00000000E+00  0.00000000E+00
  0.00000000E+00  0.00000000E+00  0.00000000E+00
  0.00000000E+00  0.00000000E+00  0.00000000E+00
  0.00000000E+00  0.00000000E+00  0.00000000E+00
  0.00000000E+00  0.00000000E+00  0.00000000E+00
  0.00000000E+00  0.00000000E+00  0.00000000E+00
  0.00000000E+00  0.00000000E+00  0.00000000E+00
  0.00000000E+00  0.00000000E+00  0.00000000E+00
  0.00000000E+00  0.00000000E+00  0.00000000E+00
  0.00000000E+00  0.00000000E+00  0.00000000E+00
  0.00000000E+00  0.00000000E+00  0.00000000E+00
  0.00000000E+00  0.00000000E+00  0.00000000E+00
  0.00000000E+00  0.00000000E+00  0.00000000E+00
  0.00000000E+00  0.00000000E+00  0.00000000E+00
  0.00000000E+00  0.00000000E+00  0.00000000E+00
  0.00000000E+00  0.00000000E+00  0.00000000E+00
  0.00000000E+00  0.00000000E+00  0.00000000E+00
  0.00000000E+00  0.00000000E+00  0.00000000E+00
  0.00000000E+00  0.00000000E+00  0.00000000E+00
  0.00000000E+00  0.00000000E+00  0.00000000E+00
  0.00000000E+00  0.00000000E+00  0.00000000E+00
  0.00000000E+00  0.00000000E+00  0.00000000E+00
  0.00000000E+00  0.00000000E+00  0.00000000E+00
  0.00000000E+00  0.00000000E+00  0.00000000E+00
