This file is generated by VASPKIT code  
   1.00000000000000     
    17.3823947905999994    0.0000000000000000    0.0000000000000000
     0.0000000000000000   18.2475891113000017    0.0000000000000000
     0.0000000000000000    0.0000000000000000   40.0000000000000000
   Cs   Pb   I 
    40    32   100
Direct
  0.5314671395384194  0.4869058383355978  0.0934588176055147
  0.4926770999542565  0.4582687519968813  0.3950211405749968
  0.5314671395384194  0.4869058383355978  0.6965834039444881
  0.5314671395384194  0.9869058085426261  0.0934588176055147
  0.4926770999542565  0.9582687222039099  0.3950211405749968
  0.5314671395384194  0.9869058085426261  0.6965834039444883
  0.9622470362860441  0.4588367172757482  0.0897561872819673
  0.9833393575564010  0.4619016341024040  0.3950211405749968
  0.9622470362860441  0.4588367172757482  0.7002860342680353
  0.9622470362860441  0.9588366874827762  0.0897561872819673
  0.9833393575564010  0.9619016043094325  0.3950211405749968
  0.9622470362860440  0.9588366874827762  0.7002860342680353
  0.0028966439277950  0.0342746095041022  0.2388736456627636
  0.0028966439277950  0.0342746095041022  0.5511686205872415
  0.0028966439277950  0.5342746038787000  0.2388736456627636
  0.0028966439277950  0.5342746038787000  0.5511686205872415
  0.5282613641069984  0.0321305740284382  0.2406671344532246
  0.5282613641069984  0.0321305740284382  0.5493751317967803
  0.5282613641069984  0.5321305684030357  0.2406671344532246
  0.5282613641069984  0.5321305684030357  0.5493751317967803
  0.2415846842391683  0.2839953187247253  0.2411179180153907
  0.2415846842391683  0.2839953187247253  0.5489243482346141
  0.2415846842391683  0.7839953187439027  0.2411179180153907
  0.2415846842391683  0.7839953187439027  0.5489243482346141
  0.7379639878771633  0.2794710635655744  0.2391393591499502
  0.7379639878771633  0.2794710635655744  0.5509029071000546
  0.7379639878771633  0.7794710635847518  0.2391393591499502
  0.7379639878771633  0.7794710635847518  0.5509029071000546
  0.2169076200314911  0.2554658882039694  0.0980881837786594
  0.2705464943314292  0.2095926293242945  0.3950211405749968
  0.2169076200314911  0.2554658882039694  0.6919540377713435
  0.2169076200314911  0.7554658882231463  0.0980881837786594
  0.2705464943314292  0.7095926293434720  0.3950211405749968
  0.2169076200314911  0.7554658882231463  0.6919540377713435
  0.7606770655299159  0.2140013211484963  0.0904473592922523
  0.7526065874863777  0.2153843377800169  0.3950211405749968
  0.7606770655299159  0.2140013211484963  0.6995948622577506
  0.7606770655299159  0.7140013211676737  0.0904473592922523
  0.7526065874863777  0.7153843377991946  0.3950211405749968
  0.7606770655299159  0.7140013211676737  0.6995948622577506
  0.2499288446275942 -0.0020410492743483  0.3174545743482931
  0.2579278841955385  0.0094451967446400  0.6266198660791629
  0.2499288446275942  0.4979589507448293  0.3174545743482931
  0.2579278841955385  0.5094451967638169  0.6266198660791629
  0.7515153674981604 -0.0025750089289779  0.3166259114665491
  0.7480963017576039 -0.0022907338226200  0.6328519265208193
  0.7515153674981604  0.4974249910901997  0.3166259114665491
  0.7480963017576039  0.4977092661965575  0.6328519265208193
  0.0021337193537446  0.2485747471599781  0.3168342283520908
 -0.0032769605742581  0.2495761491483059  0.6321293845585372
  0.0021337193537446  0.7485747471243515  0.3168342283520909
 -0.0032769605742581  0.7495761491126791  0.6321293845585372
  0.4966046618641535  0.2458101833180083  0.3138357303282948
  0.4957698245032458  0.2535442787152261  0.6415938036367026
  0.4966046618641535  0.7458101832823817  0.3138357303282948
  0.4957698245032458  0.7535442786795994  0.6415938036367026
  0.2579278841955385  0.0094451967446400  0.1634224150708380
  0.2499288446275942 -0.0020410492743483  0.4725876770017088
  0.2579278841955385  0.5094451967638169  0.1634224150708380
  0.2499288446275942  0.4979589507448293  0.4725876770017088
  0.7480963017576039 -0.0022907338226200  0.1571903546291812
  0.7515153674981604 -0.0025750089289779  0.4734163398834527
  0.7480963017576039  0.4977092661965575  0.1571903546291812
  0.7515153674981604  0.4974249910901997  0.4734163398834527
 -0.0032769605742581  0.2495761491483059  0.1579128965914636
  0.0021337193537446  0.2485747471599781  0.4732080229979110
 -0.0032769605742581  0.7495761491126791  0.1579128965914636
  0.0021337193537446  0.7485747471243515  0.4732080229979110
  0.4957698245032458  0.2535442787152261  0.1484484775132984
  0.4966046618641535  0.2458101833180083  0.4762065210217071
  0.4957698245032458  0.7535442786795994  0.1484484775132984
  0.4966046618641535  0.7458101832823817  0.4762065210217071
  0.0038177486267293  0.2512683209577209  0.0757969569778588
  0.0483921594443409  0.2563129940103461  0.3950211405749968
  0.0038177486267293  0.2512683209577209  0.7142452645721442
  0.0038177486267293  0.7512683209221014  0.0757969569778588
  0.0483921594443409  0.7563129939747266  0.3950211405749968
  0.0038177486267293  0.7512683209221014  0.7142452645721442
  0.5491960470282470  0.2720809390442911  0.0745112819515304
  0.5270361560486249  0.2479838300970492  0.3950211405749968
  0.5491960470282470  0.2720809390442911  0.7155309395984722
  0.5491960470282470  0.7720809390086713  0.0745112819515304
  0.5270361560486249  0.7479838300614295  0.3950211405749968
  0.5491960470282470  0.7720809390086713  0.7155309395984722
  0.4613104615657427  0.2375023765044387  0.2344838885110990
  0.4613104615657427  0.2375023765044387  0.5555583777389063
  0.4613104615657427  0.7375023765236239  0.2344838885110990
  0.4613104615657427  0.7375023765236239  0.5555583777389063
  0.9656870892061951  0.2488675891617184  0.2375845840666816
  0.9656870892061951  0.2488675891617184  0.5524576821833233
  0.9656870892061951  0.7488675891809030  0.2375845840666816
  0.9656870892061951  0.7488675891809030  0.5524576821833233
  0.3049084460567932  0.4929746070718600  0.2364586145143719
  0.3049084460567932  0.4929746070718600  0.5535836517356331
  0.3049084460567932  0.9929746666605530  0.2364586145143719
  0.3049084460567932  0.9929746666605530  0.5535836517356331
  0.7785283387817418  0.4961664423836883  0.2372535710024803
  0.7785283387817418  0.4961664423836883  0.5527886952475247
  0.7785283387817418  0.9961665019723813  0.2372535710024803
  0.7785283387817418  0.9961665019723813  0.5527886952475247
  0.2066788890342283  0.0024874537946054  0.3950211405749968
  0.2066788890342283  0.5024874505256824  0.3950211405749968
  0.7470258769361817  0.0021699744207342  0.0755336386431831
  0.7136503730230636  0.0027356545667479  0.3950211405749968
  0.7470258769361817  0.0021699744207342  0.7145085829068195
  0.7470258769361817  0.5021699711518112  0.0755336386431831
  0.7136503730230636  0.5027356512978253  0.3950211405749968
  0.7470258769361817  0.5021699711518112  0.7145085829068195
  0.4033970850421216  0.0930734139592670  0.3283576458460968
  0.3748025099390523  0.1217078851480025  0.6652489657574761
  0.4033970850421216  0.5930734437906010  0.3283576458460968
  0.3748025099390523  0.6217079149793368  0.6652489657574761
  0.9018997823078101  0.0994170120257847  0.3281937839077189
  0.8984234400611606  0.0999949579154844  0.6370938824819922
  0.9018997823078101  0.5994170418571186  0.3281937839077189
  0.8984234400611606  0.5999949877468183  0.6370938824819922
  0.1001332939408272  0.3991875768760834  0.3012206476200353
  0.1114330514902926  0.4015024750882206  0.6302002683384146
  0.1001332939408272  0.8991875470831046  0.3012206476200353
  0.1114330514902926  0.9015024452952423  0.6302002683384146
  0.6018600580603578  0.3929276316803614  0.3057298890507718
  0.6050975728464376  0.3883549607008598  0.6179541185722551
  0.6018600580603578  0.8929276018873830  0.3057298890507718
  0.6050975728464376  0.8883549309078816  0.6179541185722551
  0.1521667884744258  0.1458548489778060  0.3027202383558371
  0.1469922971621199  0.1493660402200949  0.6162211269504718
  0.1521667884744258  0.6458548191848346  0.3027202383558371
  0.1469922971621200  0.6493660104271233  0.6162211269504718
  0.6512512345505475  0.1476406720779496  0.3056139184317779
  0.6313890196523814  0.1370439917726441  0.6270706027978435
  0.6512512345505475  0.6476406422849780  0.3056139184317779
  0.6313890196523814  0.6370439619796726  0.6270706027978435
  0.3463512593471227  0.3468012003414205  0.3273939215953339
  0.3641497637410319  0.3786631009349936  0.6550338453028377
  0.3463512593471227  0.8468012301727612  0.3273939215953339
  0.3641497637410319  0.8786631307663346  0.6550338453028377
  0.8505948854210258  0.3473125029005157  0.3288054924349215
  0.8471547110662069  0.3466711765109375  0.6367467318337338
  0.8505948854210258  0.8473125327318564  0.3288054924349215
  0.8471547110662069  0.8466712063422785  0.6367467318337338
  0.1114330514902926  0.4015024750882206  0.1598419680865878
  0.1001332939408272  0.3991875768760834  0.4888216037299665
  0.1114330514902926  0.9015024452952423  0.1598419680865878
  0.1001332939408272  0.8991875470831046  0.4888216037299665
  0.6050975728464376  0.3883549607008598  0.1720881178527471
  0.6018600580603578  0.3929276316803614  0.4843123622992301
  0.6050975728464376  0.8883549309078816  0.1720881178527471
  0.6018600580603578  0.8929276018873830  0.4843123622992301
  0.3748025099390523  0.1217078851480025  0.1247932855925261
  0.4033970850421216  0.0930734139592670  0.4616846055039051
  0.3748025099390523  0.6217079149793368  0.1247932855925261
  0.4033970850421216  0.5930734437906010  0.4616846055039051
  0.8984234400611606  0.0999949579154844  0.1529483688680099
  0.9018997823078101  0.0994170120257847  0.4618484674422829
  0.8984234400611606  0.5999949877468183  0.1529483688680099
  0.9018997823078101  0.5994170418571186  0.4618484674422829
  0.3641497637410319  0.3786631009349936  0.1350084060471641
  0.3463512593471227  0.3468012003414205  0.4626483297546680
  0.3641497637410319  0.8786631307663346  0.1350084060471641
  0.3463512593471227  0.8468012301727612  0.4626483297546680
  0.8471547110662069  0.3466711765109375  0.1532955195162679
  0.8505948854210258  0.3473125029005157  0.4612367589150803
  0.8471547110662069  0.8466712063422785  0.1532955195162679
  0.8505948854210258  0.8473125327318564  0.4612367589150803
  0.1469922971621199  0.1493660402200949  0.1738211094745300
  0.1521667884744258  0.1458548489778060  0.4873220129941647
  0.1469922971621199  0.6493660104271233  0.1738211094745300
  0.1521667884744258  0.6458548191848346  0.4873220129941647
  0.6313890196523814  0.1370439917726441  0.1629716336271584
  0.6512512345505475  0.1476406720779496  0.4844283329182239
  0.6313890196523814  0.6370439619796726  0.1629716336271584
  0.6512512345505475  0.6476406422849780  0.4844283329182239
 
  0.00000000E+00  0.00000000E+00  0.00000000E+00
  0.00000000E+00  0.00000000E+00  0.00000000E+00
  0.00000000E+00  0.00000000E+00  0.00000000E+00
  0.00000000E+00  0.00000000E+00  0.00000000E+00
  0.00000000E+00  0.00000000E+00  0.00000000E+00
  0.00000000E+00  0.00000000E+00  0.00000000E+00
  0.00000000E+00  0.00000000E+00  0.00000000E+00
  0.00000000E+00  0.00000000E+00  0.00000000E+00
  0.00000000E+00  0.00000000E+00  0.00000000E+00
  0.00000000E+00  0.00000000E+00  0.00000000E+00
  0.00000000E+00  0.00000000E+00  0.00000000E+00
  0.00000000E+00  0.00000000E+00  0.00000000E+00
  0.00000000E+00  0.00000000E+00  0.00000000E+00
  0.00000000E+00  0.00000000E+00  0.00000000E+00
  0.00000000E+00  0.00000000E+00  0.00000000E+00
  0.00000000E+00  0.00000000E+00  0.00000000E+00
  0.00000000E+00  0.00000000E+00  0.00000000E+00
  0.00000000E+00  0.00000000E+00  0.00000000E+00
  0.00000000E+00  0.00000000E+00  0.00000000E+00
  0.00000000E+00  0.00000000E+00  0.00000000E+00
  0.00000000E+00  0.00000000E+00  0.00000000E+00
  0.00000000E+00  0.00000000E+00  0.00000000E+00
  0.00000000E+00  0.00000000E+00  0.00000000E+00
  0.00000000E+00  0.00000000E+00  0.00000000E+00
  0.00000000E+00  0.00000000E+00  0.00000000E+00
  0.00000000E+00  0.00000000E+00  0.00000000E+00
  0.00000000E+00  0.00000000E+00  0.00000000E+00
  0.00000000E+00  0.00000000E+00  0.00000000E+00
  0.00000000E+00  0.00000000E+00  0.00000000E+00
  0.00000000E+00  0.00000000E+00  0.00000000E+00
  0.00000000E+00  0.00000000E+00  0.00000000E+00
  0.00000000E+00  0.00000000E+00  0.00000000E+00
  0.00000000E+00  0.00000000E+00  0.00000000E+00
  0.00000000E+00  0.00000000E+00  0.00000000E+00
  0.00000000E+00  0.00000000E+00  0.00000000E+00
  0.00000000E+00  0.00000000E+00  0.00000000E+00
  0.00000000E+00  0.00000000E+00  0.00000000E+00
  0.00000000E+00  0.00000000E+00  0.00000000E+00
  0.00000000E+00  0.00000000E+00  0.00000000E+00
  0.00000000E+00  0.00000000E+00  0.00000000E+00
  0.00000000E+00  0.00000000E+00  0.00000000E+00
  0.00000000E+00  0.00000000E+00  0.00000000E+00
  0.00000000E+00  0.00000000E+00  0.00000000E+00
  0.00000000E+00  0.00000000E+00  0.00000000E+00
  0.00000000E+00  0.00000000E+00  0.00000000E+00
  0.00000000E+00  0.00000000E+00  0.00000000E+00
  0.00000000E+00  0.00000000E+00  0.00000000E+00
  0.00000000E+00  0.00000000E+00  0.00000000E+00
  0.00000000E+00  0.00000000E+00  0.00000000E+00
  0.00000000E+00  0.00000000E+00  0.00000000E+00
  0.00000000E+00  0.00000000E+00  0.00000000E+00
  0.00000000E+00  0.00000000E+00  0.00000000E+00
  0.00000000E+00  0.00000000E+00  0.00000000E+00
  0.00000000E+00  0.00000000E+00  0.00000000E+00
  0.00000000E+00  0.00000000E+00  0.00000000E+00
  0.00000000E+00  0.00000000E+00  0.00000000E+00
  0.00000000E+00  0.00000000E+00  0.00000000E+00
  0.00000000E+00  0.00000000E+00  0.00000000E+00
  0.00000000E+00  0.00000000E+00  0.00000000E+00
  0.00000000E+00  0.00000000E+00  0.00000000E+00
  0.00000000E+00  0.00000000E+00  0.00000000E+00
  0.00000000E+00  0.00000000E+00  0.00000000E+00
  0.00000000E+00  0.00000000E+00  0.00000000E+00
  0.00000000E+00  0.00000000E+00  0.00000000E+00
  0.00000000E+00  0.00000000E+00  0.00000000E+00
  0.00000000E+00  0.00000000E+00  0.00000000E+00
  0.00000000E+00  0.00000000E+00  0.00000000E+00
  0.00000000E+00  0.00000000E+00  0.00000000E+00
  0.00000000E+00  0.00000000E+00  0.00000000E+00
  0.00000000E+00  0.00000000E+00  0.00000000E+00
  0.00000000E+00  0.00000000E+00  0.00000000E+00
  0.00000000E+00  0.00000000E+00  0.00000000E+00
  0.00000000E+00  0.00000000E+00  0.00000000E+00
  0.00000000E+00  0.00000000E+00  0.00000000E+00
  0.00000000E+00  0.00000000E+00  0.00000000E+00
  0.00000000E+00  0.00000000E+00  0.00000000E+00
  0.00000000E+00  0.00000000E+00  0.00000000E+00
  0.00000000E+00  0.00000000E+00  0.00000000E+00
  0.00000000E+00  0.00000000E+00  0.00000000E+00
  0.00000000E+00  0.00000000E+00  0.00000000E+00
  0.00000000E+00  0.00000000E+00  0.00000000E+00
  0.00000000E+00  0.00000000E+00  0.00000000E+00
  0.00000000E+00  0.00000000E+00  0.00000000E+00
  0.00000000E+00  0.00000000E+00  0.00000000E+00
  0.00000000E+00  0.00000000E+00  0.00000000E+00
  0.00000000E+00  0.00000000E+00  0.00000000E+00
  0.00000000E+00  0.00000000E+00  0.00000000E+00
  0.00000000E+00  0.00000000E+00  0.00000000E+00
  0.00000000E+00  0.00000000E+00  0.00000000E+00
  0.00000000E+00  0.00000000E+00  0.00000000E+00
  0.00000000E+00  0.00000000E+00  0.00000000E+00
  0.00000000E+00  0.00000000E+00  0.00000000E+00
  0.00000000E+00  0.00000000E+00  0.00000000E+00
  0.00000000E+00  0.00000000E+00  0.00000000E+00
  0.00000000E+00  0.00000000E+00  0.00000000E+00
  0.00000000E+00  0.00000000E+00  0.00000000E+00
  0.00000000E+00  0.00000000E+00  0.00000000E+00
  0.00000000E+00  0.00000000E+00  0.00000000E+00
  0.00000000E+00  0.00000000E+00  0.00000000E+00
  0.00000000E+00  0.00000000E+00  0.00000000E+00
  0.00000000E+00  0.00000000E+00  0.00000000E+00
  0.00000000E+00  0.00000000E+00  0.00000000E+00
  0.00000000E+00  0.00000000E+00  0.00000000E+00
  0.00000000E+00  0.00000000E+00  0.00000000E+00
  0.00000000E+00  0.00000000E+00  0.00000000E+00
  0.00000000E+00  0.00000000E+00  0.00000000E+00
  0.00000000E+00  0.00000000E+00  0.00000000E+00
  0.00000000E+00  0.00000000E+00  0.00000000E+00
  0.00000000E+00  0.00000000E+00  0.00000000E+00
  0.00000000E+00  0.00000000E+00  0.00000000E+00
  0.00000000E+00  0.00000000E+00  0.00000000E+00
  0.00000000E+00  0.00000000E+00  0.00000000E+00
  0.00000000E+00  0.00000000E+00  0.00000000E+00
  0.00000000E+00  0.00000000E+00  0.00000000E+00
  0.00000000E+00  0.00000000E+00  0.00000000E+00
  0.00000000E+00  0.00000000E+00  0.00000000E+00
  0.00000000E+00  0.00000000E+00  0.00000000E+00
  0.00000000E+00  0.00000000E+00  0.00000000E+00
  0.00000000E+00  0.00000000E+00  0.00000000E+00
  0.00000000E+00  0.00000000E+00  0.00000000E+00
  0.00000000E+00  0.00000000E+00  0.00000000E+00
  0.00000000E+00  0.00000000E+00  0.00000000E+00
  0.00000000E+00  0.00000000E+00  0.00000000E+00
  0.00000000E+00  0.00000000E+00  0.00000000E+00
  0.00000000E+00  0.00000000E+00  0.00000000E+00
  0.00000000E+00  0.00000000E+00  0.00000000E+00
  0.00000000E+00  0.00000000E+00  0.00000000E+00
  0.00000000E+00  0.00000000E+00  0.00000000E+00
  0.00000000E+00  0.00000000E+00  0.00000000E+00
  0.00000000E+00  0.00000000E+00  0.00000000E+00
  0.00000000E+00  0.00000000E+00  0.00000000E+00
  0.00000000E+00  0.00000000E+00  0.00000000E+00
  0.00000000E+00  0.00000000E+00  0.00000000E+00
  0.00000000E+00  0.00000000E+00  0.00000000E+00
  0.00000000E+00  0.00000000E+00  0.00000000E+00
  0.00000000E+00  0.00000000E+00  0.00000000E+00
  0.00000000E+00  0.00000000E+00  0.00000000E+00
  0.00000000E+00  0.00000000E+00  0.00000000E+00
  0.00000000E+00  0.00000000E+00  0.00000000E+00
  0.00000000E+00  0.00000000E+00  0.00000000E+00
  0.00000000E+00  0.00000000E+00  0.00000000E+00
  0.00000000E+00  0.00000000E+00  0.00000000E+00
  0.00000000E+00  0.00000000E+00  0.00000000E+00
  0.00000000E+00  0.00000000E+00  0.00000000E+00
  0.00000000E+00  0.00000000E+00  0.00000000E+00
  0.00000000E+00  0.00000000E+00  0.00000000E+00
  0.00000000E+00  0.00000000E+00  0.00000000E+00
  0.00000000E+00  0.00000000E+00  0.00000000E+00
  0.00000000E+00  0.00000000E+00  0.00000000E+00
  0.00000000E+00  0.00000000E+00  0.00000000E+00
  0.00000000E+00  0.00000000E+00  0.00000000E+00
  0.00000000E+00  0.00000000E+00  0.00000000E+00
  0.00000000E+00  0.00000000E+00  0.00000000E+00
  0.00000000E+00  0.00000000E+00  0.00000000E+00
  0.00000000E+00  0.00000000E+00  0.00000000E+00
  0.00000000E+00  0.00000000E+00  0.00000000E+00
  0.00000000E+00  0.00000000E+00  0.00000000E+00
  0.00000000E+00  0.00000000E+00  0.00000000E+00
  0.00000000E+00  0.00000000E+00  0.00000000E+00
  0.00000000E+00  0.00000000E+00  0.00000000E+00
  0.00000000E+00  0.00000000E+00  0.00000000E+00
  0.00000000E+00  0.00000000E+00  0.00000000E+00
  0.00000000E+00  0.00000000E+00  0.00000000E+00
  0.00000000E+00  0.00000000E+00  0.00000000E+00
  0.00000000E+00  0.00000000E+00  0.00000000E+00
  0.00000000E+00  0.00000000E+00  0.00000000E+00
  0.00000000E+00  0.00000000E+00  0.00000000E+00
  0.00000000E+00  0.00000000E+00  0.00000000E+00
  0.00000000E+00  0.00000000E+00  0.00000000E+00
  0.00000000E+00  0.00000000E+00  0.00000000E+00
  0.00000000E+00  0.00000000E+00  0.00000000E+00
  0.00000000E+00  0.00000000E+00  0.00000000E+00
