This file is generated by VASPKIT code  
   1.00000000000000     
    17.3823941941652436    0.0000000000000000    0.0000000000000010
     0.0000000000000028   18.2475883808102353    0.0000000000000010
     0.0000000000000000    0.0000000000000000   40.0000000000000000
   Cs   Pb   I 
    40    32   104
Direct
  0.5028696550600239  0.4665183238089979  0.0881384249547648
  0.4891473572934499  0.4633684301563508  0.3950211269729067
  0.5028696550600239  0.4665183238089979  0.7019038289910484
  0.5028696550600239  0.9665183238089977  0.0881384249547648
  0.4891473572934499  0.9633684301563511  0.3950211269729067
  0.5028696550600239  0.9665183238089977  0.7019038289910484
  0.0028696550600240  0.4665183238089979  0.0881384249547648
  0.9891473572934500  0.4633684301563508  0.3950211269729067
  0.0028696550600240  0.4665183238089979  0.7019038289910484
  0.0028696550600240  0.9665183238089977  0.0881384249547648
  0.9891473572934500  0.9633684301563511  0.3950211269729067
  0.0028696550600240  0.9665183238089977  0.7019038289910484
  0.0099139737446623  0.0367621602538064  0.2386671805677623
  0.0099139737446623  0.0367621602538064  0.5513750733780513
  0.0099139737446623  0.5367621602538064  0.2386671805677623
  0.0099139737446623  0.5367621602538064  0.5513750733780513
  0.5099139737446623  0.0367621602538064  0.2386671805677623
  0.5099139737446623  0.0367621602538064  0.5513750733780513
  0.5099139737446623  0.5367621602538064  0.2386671805677623
  0.5099139737446623  0.5367621602538064  0.5513750733780513
  0.2400860262553377  0.2867621602538062  0.2386671805677623
  0.2400860262553377  0.2867621602538062  0.5513750733780513
  0.2400860262553377  0.7867621602538064  0.2386671805677623
  0.2400860262553377  0.7867621602538064  0.5513750733780513
  0.7400860262553377  0.2867621602538062  0.2386671805677623
  0.7400860262553377  0.2867621602538062  0.5513750733780513
  0.7400860262553377  0.7867621602538064  0.2386671805677623
  0.7400860262553377  0.7867621602538064  0.5513750733780513
  0.2471303449399759  0.2165183238089978  0.0881384249547648
  0.2608526427065501  0.2133684301563510  0.3950211269729067
  0.2471303449399759  0.2165183238089978  0.7019038289910484
  0.2471303449399759  0.7165183238089977  0.0881384249547648
  0.2608526427065501  0.7133684301563511  0.3950211269729067
  0.2471303449399759  0.7165183238089977  0.7019038289910484
  0.7471303449399761  0.2165183238089978  0.0881384249547648
  0.7608526427065500  0.2133684301563510  0.3950211269729067
  0.7471303449399761  0.2165183238089978  0.7019038289910484
  0.7471303449399761  0.7165183238089977  0.0881384249547648
  0.7608526427065500  0.7133684301563511  0.3950211269729067
  0.7471303449399761  0.7165183238089977  0.7019038289910484
  0.2507131270617215  0.0006988322474991  0.3152825466059881
  0.2482503951684321 -0.0003279692578935  0.6355444278629712
  0.2507131270617215  0.5006988322474993  0.3152825466059881
  0.2482503951684321  0.4996720307421064  0.6355444278629712
  0.7507131270617218  0.0006988322474991  0.3152825466059881
  0.7482503951684319 -0.0003279692578935  0.6355444278629712
  0.7507131270617218  0.5006988322474993  0.3152825466059881
  0.7482503951684319  0.4996720307421064  0.6355444278629712
 -0.0007131270617216  0.2506988322474991  0.3152825466059881
  0.0017496048315679  0.2496720307421064  0.6355444278629712
 -0.0007131270617216  0.7506988322474992  0.3152825466059881
  0.0017496048315679  0.7496720307421064  0.6355444278629712
  0.4992868729382785  0.2506988322474991  0.3152825466059881
  0.5017496048315681  0.2496720307421064  0.6355444278629712
  0.4992868729382785  0.7506988322474992  0.3152825466059881
  0.5017496048315681  0.7496720307421064  0.6355444278629712
  0.2482503951684321 -0.0003279692578935  0.1544978260828350
  0.2507131270617215  0.0006988322474991  0.4747597073398181
  0.2482503951684321  0.4996720307421064  0.1544978260828350
  0.2507131270617215  0.5006988322474993  0.4747597073398181
  0.7482503951684319 -0.0003279692578935  0.1544978260828350
  0.7507131270617218  0.0006988322474991  0.4747597073398181
  0.7482503951684319  0.4996720307421064  0.1544978260828350
  0.7507131270617218  0.5006988322474993  0.4747597073398181
  0.0017496048315679  0.2496720307421064  0.1544978260828350
 -0.0007131270617216  0.2506988322474991  0.4747597073398181
  0.0017496048315679  0.7496720307421064  0.1544978260828350
 -0.0007131270617216  0.7506988322474992  0.4747597073398181
  0.5017496048315681  0.2496720307421064  0.1544978260828350
  0.4992868729382785  0.2506988322474991  0.4747597073398181
  0.5017496048315681  0.7496720307421064  0.1544978260828350
  0.4992868729382785  0.7506988322474992  0.4747597073398181
  0.0288413576868902  0.2561459514774566  0.0763109815691183
  0.0363878722944274  0.2537345202574262  0.3950211269729067
  0.0288413576868902  0.2561459514774566  0.7137312723766952
  0.0288413576868902  0.7561459514774569  0.0763109815691183
  0.0363878722944274  0.7537345202574266  0.3950211269729067
  0.0288413576868902  0.7561459514774569  0.7137312723766950
  0.5288413576868903  0.2561459514774566  0.0763109815691183
  0.5363878722944277  0.2537345202574262  0.3950211269729067
  0.5288413576868903  0.2561459514774566  0.7137312723766950
  0.5288413576868903  0.7561459514774569  0.0763109815691183
  0.5363878722944277  0.7537345202574266  0.3950211269729067
  0.5288413576868903  0.7561459514774569  0.7137312723766952
  0.4634164648518569  0.2464158468134311  0.2361675848566145
  0.4634164648518569  0.2464158468134311  0.5538746690891988
  0.4634164648518569  0.7464158468134310  0.2361675848566145
  0.4634164648518569  0.7464158468134310  0.5538746690891988
  0.9634164648518568  0.2464158468134311  0.2361675848566145
  0.9634164648518568  0.2464158468134311  0.5538746690891988
  0.9634164648518568  0.7464158468134310  0.2361675848566145
  0.9634164648518568  0.7464158468134310  0.5538746690891988
  0.2865835351481431  0.4964158468134313  0.2361675848566145
  0.2865835351481431  0.4964158468134313  0.5538746690891988
  0.2865835351481431  0.9964158468134310  0.2361675848566145
  0.2865835351481431  0.9964158468134310  0.5538746690891988
  0.7865835351481432  0.4964158468134313  0.2361675848566145
  0.7865835351481432  0.4964158468134313  0.5538746690891988
  0.7865835351481432  0.9964158468134310  0.2361675848566145
  0.7865835351481432  0.9964158468134310  0.5538746690891988
  0.2211586423131098  0.0061459514774566  0.0763109815691183
  0.2136121277055727  0.0037345202574263  0.3950211269729067
  0.2211586423131098  0.0061459514774566  0.7137312723766950
  0.2211586423131098  0.5061459514774569  0.0763109815691183
  0.2136121277055727  0.5037345202574266  0.3950211269729067
  0.2211586423131098  0.5061459514774569  0.7137312723766950
  0.7211586423131097  0.0061459514774566  0.0763109815691183
  0.7136121277055723  0.0037345202574263  0.3950211269729067
  0.7211586423131097  0.0061459514774566  0.7137312723766950
  0.7211586423131097  0.5061459514774569  0.0763109815691183
  0.7136121277055723  0.5037345202574266  0.3950211269729067
  0.7211586423131097  0.5061459514774569  0.7137312723766950
  0.4028671574553811  0.0994354463994957  0.3279957443195188
  0.3992888207248380  0.1040717361530317  0.6460471828588401
  0.4028671574553811  0.5994354463994953  0.3279957443195188
  0.3992888207248380  0.6040717361530317  0.6460471828588401
  0.9028671574553813  0.0994354463994957  0.3279957443195188
  0.8992888207248381  0.1040717361530317  0.6460471828588401
  0.9028671574553813  0.5994354463994953  0.3279957443195188
  0.8992888207248381  0.6040717361530317  0.6460471828588401
  0.0978615512446037  0.3999738281101528  0.3034421892254262
  0.0992321770945589  0.3998991187871362  0.6196963912047949
  0.0978615512446037  0.8999738281101529  0.3034421892254262
  0.0992321770945589  0.8998991187871361  0.6196963912047949
  0.5978615512446038  0.3999738281101528  0.3034421892254262
  0.5992321770945591  0.3998991187871362  0.6196963912047949
  0.5978615512446038  0.8999738281101529  0.3034421892254262
  0.5992321770945591  0.8998991187871361  0.6196963912047949
  0.1521384487553962  0.1499738281101527  0.3034421892254262
  0.1507678229054411  0.1498991187871363  0.6196963912047949
  0.1521384487553962  0.6499738281101529  0.3034421892254262
  0.1507678229054411  0.6498991187871361  0.6196963912047949
  0.6521384487553962  0.1499738281101527  0.3034421892254262
  0.6507678229054409  0.1498991187871363  0.6196963912047949
  0.6521384487553962  0.6499738281101529  0.3034421892254262
  0.6507678229054409  0.6498991187871361  0.6196963912047949
  0.3471328425446189  0.3494354463994957  0.3279957443195188
  0.3507111792751620  0.3540717361530316  0.6460471828588401
  0.3471328425446189  0.8494354463994953  0.3279957443195188
  0.3507111792751620  0.8540717361530317  0.6460471828588401
  0.8471328425446187  0.3494354463994957  0.3279957443195188
  0.8507111792751619  0.3540717361530316  0.6460471828588401
  0.8471328425446187  0.8494354463994953  0.3279957443195188
  0.8507111792751619  0.8540717361530317  0.6460471828588401
  0.0992321770945589  0.3998991187871362  0.1703458627410113
  0.0978615512446037  0.3999738281101528  0.4866000647203801
  0.0992321770945589  0.8998991187871361  0.1703458627410113
  0.0978615512446037  0.8999738281101529  0.4866000647203801
  0.5992321770945591  0.3998991187871362  0.1703458627410113
  0.5978615512446038  0.3999738281101528  0.4866000647203801
  0.5992321770945591  0.8998991187871361  0.1703458627410113
  0.5978615512446038  0.8999738281101529  0.4866000647203801
  0.3992888207248380  0.1040717361530317  0.1439950710869663
  0.4028671574553811  0.0994354463994957  0.4620465096262875
  0.3992888207248380  0.6040717361530317  0.1439950710869663
  0.4028671574553811  0.5994354463994953  0.4620465096262875
  0.8992888207248381  0.1040717361530317  0.1439950710869663
  0.9028671574553813  0.0994354463994957  0.4620465096262875
  0.8992888207248381  0.6040717361530317  0.1439950710869663
  0.9028671574553813  0.5994354463994953  0.4620465096262875
  0.3507111792751620  0.3540717361530316  0.1439950710869663
  0.3471328425446189  0.3494354463994957  0.4620465096262875
  0.3507111792751620  0.8540717361530317  0.1439950710869663
  0.3471328425446189  0.8494354463994953  0.4620465096262875
  0.8507111792751619  0.3540717361530316  0.1439950710869663
  0.8471328425446187  0.3494354463994957  0.4620465096262875
  0.8507111792751619  0.8540717361530317  0.1439950710869663
  0.8471328425446187  0.8494354463994953  0.4620465096262875
  0.1507678229054411  0.1498991187871363  0.1703458627410113
  0.1521384487553962  0.1499738281101527  0.4866000647203801
  0.1507678229054411  0.6498991187871361  0.1703458627410113
  0.1521384487553962  0.6499738281101529  0.4866000647203801
  0.6507678229054409  0.1498991187871363  0.1703458627410113
  0.6521384487553962  0.1499738281101527  0.4866000647203801
  0.6507678229054409  0.6498991187871361  0.1703458627410113
  0.6521384487553962  0.6499738281101529  0.4866000647203801
 
  0.00000000E+00  0.00000000E+00  0.00000000E+00
  0.00000000E+00  0.00000000E+00  0.00000000E+00
  0.00000000E+00  0.00000000E+00  0.00000000E+00
  0.00000000E+00  0.00000000E+00  0.00000000E+00
  0.00000000E+00  0.00000000E+00  0.00000000E+00
  0.00000000E+00  0.00000000E+00  0.00000000E+00
  0.00000000E+00  0.00000000E+00  0.00000000E+00
  0.00000000E+00  0.00000000E+00  0.00000000E+00
  0.00000000E+00  0.00000000E+00  0.00000000E+00
  0.00000000E+00  0.00000000E+00  0.00000000E+00
  0.00000000E+00  0.00000000E+00  0.00000000E+00
  0.00000000E+00  0.00000000E+00  0.00000000E+00
  0.00000000E+00  0.00000000E+00  0.00000000E+00
  0.00000000E+00  0.00000000E+00  0.00000000E+00
  0.00000000E+00  0.00000000E+00  0.00000000E+00
  0.00000000E+00  0.00000000E+00  0.00000000E+00
  0.00000000E+00  0.00000000E+00  0.00000000E+00
  0.00000000E+00  0.00000000E+00  0.00000000E+00
  0.00000000E+00  0.00000000E+00  0.00000000E+00
  0.00000000E+00  0.00000000E+00  0.00000000E+00
  0.00000000E+00  0.00000000E+00  0.00000000E+00
  0.00000000E+00  0.00000000E+00  0.00000000E+00
  0.00000000E+00  0.00000000E+00  0.00000000E+00
  0.00000000E+00  0.00000000E+00  0.00000000E+00
  0.00000000E+00  0.00000000E+00  0.00000000E+00
  0.00000000E+00  0.00000000E+00  0.00000000E+00
  0.00000000E+00  0.00000000E+00  0.00000000E+00
  0.00000000E+00  0.00000000E+00  0.00000000E+00
  0.00000000E+00  0.00000000E+00  0.00000000E+00
  0.00000000E+00  0.00000000E+00  0.00000000E+00
  0.00000000E+00  0.00000000E+00  0.00000000E+00
  0.00000000E+00  0.00000000E+00  0.00000000E+00
  0.00000000E+00  0.00000000E+00  0.00000000E+00
  0.00000000E+00  0.00000000E+00  0.00000000E+00
  0.00000000E+00  0.00000000E+00  0.00000000E+00
  0.00000000E+00  0.00000000E+00  0.00000000E+00
  0.00000000E+00  0.00000000E+00  0.00000000E+00
  0.00000000E+00  0.00000000E+00  0.00000000E+00
  0.00000000E+00  0.00000000E+00  0.00000000E+00
  0.00000000E+00  0.00000000E+00  0.00000000E+00
  0.00000000E+00  0.00000000E+00  0.00000000E+00
  0.00000000E+00  0.00000000E+00  0.00000000E+00
  0.00000000E+00  0.00000000E+00  0.00000000E+00
  0.00000000E+00  0.00000000E+00  0.00000000E+00
  0.00000000E+00  0.00000000E+00  0.00000000E+00
  0.00000000E+00  0.00000000E+00  0.00000000E+00
  0.00000000E+00  0.00000000E+00  0.00000000E+00
  0.00000000E+00  0.00000000E+00  0.00000000E+00
  0.00000000E+00  0.00000000E+00  0.00000000E+00
  0.00000000E+00  0.00000000E+00  0.00000000E+00
  0.00000000E+00  0.00000000E+00  0.00000000E+00
  0.00000000E+00  0.00000000E+00  0.00000000E+00
  0.00000000E+00  0.00000000E+00  0.00000000E+00
  0.00000000E+00  0.00000000E+00  0.00000000E+00
  0.00000000E+00  0.00000000E+00  0.00000000E+00
  0.00000000E+00  0.00000000E+00  0.00000000E+00
  0.00000000E+00  0.00000000E+00  0.00000000E+00
  0.00000000E+00  0.00000000E+00  0.00000000E+00
  0.00000000E+00  0.00000000E+00  0.00000000E+00
  0.00000000E+00  0.00000000E+00  0.00000000E+00
  0.00000000E+00  0.00000000E+00  0.00000000E+00
  0.00000000E+00  0.00000000E+00  0.00000000E+00
  0.00000000E+00  0.00000000E+00  0.00000000E+00
  0.00000000E+00  0.00000000E+00  0.00000000E+00
  0.00000000E+00  0.00000000E+00  0.00000000E+00
  0.00000000E+00  0.00000000E+00  0.00000000E+00
  0.00000000E+00  0.00000000E+00  0.00000000E+00
  0.00000000E+00  0.00000000E+00  0.00000000E+00
  0.00000000E+00  0.00000000E+00  0.00000000E+00
  0.00000000E+00  0.00000000E+00  0.00000000E+00
  0.00000000E+00  0.00000000E+00  0.00000000E+00
  0.00000000E+00  0.00000000E+00  0.00000000E+00
  0.00000000E+00  0.00000000E+00  0.00000000E+00
  0.00000000E+00  0.00000000E+00  0.00000000E+00
  0.00000000E+00  0.00000000E+00  0.00000000E+00
  0.00000000E+00  0.00000000E+00  0.00000000E+00
  0.00000000E+00  0.00000000E+00  0.00000000E+00
  0.00000000E+00  0.00000000E+00  0.00000000E+00
  0.00000000E+00  0.00000000E+00  0.00000000E+00
  0.00000000E+00  0.00000000E+00  0.00000000E+00
  0.00000000E+00  0.00000000E+00  0.00000000E+00
  0.00000000E+00  0.00000000E+00  0.00000000E+00
  0.00000000E+00  0.00000000E+00  0.00000000E+00
  0.00000000E+00  0.00000000E+00  0.00000000E+00
  0.00000000E+00  0.00000000E+00  0.00000000E+00
  0.00000000E+00  0.00000000E+00  0.00000000E+00
  0.00000000E+00  0.00000000E+00  0.00000000E+00
  0.00000000E+00  0.00000000E+00  0.00000000E+00
  0.00000000E+00  0.00000000E+00  0.00000000E+00
  0.00000000E+00  0.00000000E+00  0.00000000E+00
  0.00000000E+00  0.00000000E+00  0.00000000E+00
  0.00000000E+00  0.00000000E+00  0.00000000E+00
  0.00000000E+00  0.00000000E+00  0.00000000E+00
  0.00000000E+00  0.00000000E+00  0.00000000E+00
  0.00000000E+00  0.00000000E+00  0.00000000E+00
  0.00000000E+00  0.00000000E+00  0.00000000E+00
  0.00000000E+00  0.00000000E+00  0.00000000E+00
  0.00000000E+00  0.00000000E+00  0.00000000E+00
  0.00000000E+00  0.00000000E+00  0.00000000E+00
  0.00000000E+00  0.00000000E+00  0.00000000E+00
  0.00000000E+00  0.00000000E+00  0.00000000E+00
  0.00000000E+00  0.00000000E+00  0.00000000E+00
  0.00000000E+00  0.00000000E+00  0.00000000E+00
  0.00000000E+00  0.00000000E+00  0.00000000E+00
  0.00000000E+00  0.00000000E+00  0.00000000E+00
  0.00000000E+00  0.00000000E+00  0.00000000E+00
  0.00000000E+00  0.00000000E+00  0.00000000E+00
  0.00000000E+00  0.00000000E+00  0.00000000E+00
  0.00000000E+00  0.00000000E+00  0.00000000E+00
  0.00000000E+00  0.00000000E+00  0.00000000E+00
  0.00000000E+00  0.00000000E+00  0.00000000E+00
  0.00000000E+00  0.00000000E+00  0.00000000E+00
  0.00000000E+00  0.00000000E+00  0.00000000E+00
  0.00000000E+00  0.00000000E+00  0.00000000E+00
  0.00000000E+00  0.00000000E+00  0.00000000E+00
  0.00000000E+00  0.00000000E+00  0.00000000E+00
  0.00000000E+00  0.00000000E+00  0.00000000E+00
  0.00000000E+00  0.00000000E+00  0.00000000E+00
  0.00000000E+00  0.00000000E+00  0.00000000E+00
  0.00000000E+00  0.00000000E+00  0.00000000E+00
  0.00000000E+00  0.00000000E+00  0.00000000E+00
  0.00000000E+00  0.00000000E+00  0.00000000E+00
  0.00000000E+00  0.00000000E+00  0.00000000E+00
  0.00000000E+00  0.00000000E+00  0.00000000E+00
  0.00000000E+00  0.00000000E+00  0.00000000E+00
  0.00000000E+00  0.00000000E+00  0.00000000E+00
  0.00000000E+00  0.00000000E+00  0.00000000E+00
  0.00000000E+00  0.00000000E+00  0.00000000E+00
  0.00000000E+00  0.00000000E+00  0.00000000E+00
  0.00000000E+00  0.00000000E+00  0.00000000E+00
  0.00000000E+00  0.00000000E+00  0.00000000E+00
  0.00000000E+00  0.00000000E+00  0.00000000E+00
  0.00000000E+00  0.00000000E+00  0.00000000E+00
  0.00000000E+00  0.00000000E+00  0.00000000E+00
  0.00000000E+00  0.00000000E+00  0.00000000E+00
  0.00000000E+00  0.00000000E+00  0.00000000E+00
  0.00000000E+00  0.00000000E+00  0.00000000E+00
  0.00000000E+00  0.00000000E+00  0.00000000E+00
  0.00000000E+00  0.00000000E+00  0.00000000E+00
  0.00000000E+00  0.00000000E+00  0.00000000E+00
  0.00000000E+00  0.00000000E+00  0.00000000E+00
  0.00000000E+00  0.00000000E+00  0.00000000E+00
  0.00000000E+00  0.00000000E+00  0.00000000E+00
  0.00000000E+00  0.00000000E+00  0.00000000E+00
  0.00000000E+00  0.00000000E+00  0.00000000E+00
  0.00000000E+00  0.00000000E+00  0.00000000E+00
  0.00000000E+00  0.00000000E+00  0.00000000E+00
  0.00000000E+00  0.00000000E+00  0.00000000E+00
  0.00000000E+00  0.00000000E+00  0.00000000E+00
  0.00000000E+00  0.00000000E+00  0.00000000E+00
  0.00000000E+00  0.00000000E+00  0.00000000E+00
  0.00000000E+00  0.00000000E+00  0.00000000E+00
  0.00000000E+00  0.00000000E+00  0.00000000E+00
  0.00000000E+00  0.00000000E+00  0.00000000E+00
  0.00000000E+00  0.00000000E+00  0.00000000E+00
  0.00000000E+00  0.00000000E+00  0.00000000E+00
  0.00000000E+00  0.00000000E+00  0.00000000E+00
  0.00000000E+00  0.00000000E+00  0.00000000E+00
  0.00000000E+00  0.00000000E+00  0.00000000E+00
  0.00000000E+00  0.00000000E+00  0.00000000E+00
  0.00000000E+00  0.00000000E+00  0.00000000E+00
  0.00000000E+00  0.00000000E+00  0.00000000E+00
  0.00000000E+00  0.00000000E+00  0.00000000E+00
  0.00000000E+00  0.00000000E+00  0.00000000E+00
  0.00000000E+00  0.00000000E+00  0.00000000E+00
  0.00000000E+00  0.00000000E+00  0.00000000E+00
  0.00000000E+00  0.00000000E+00  0.00000000E+00
  0.00000000E+00  0.00000000E+00  0.00000000E+00
  0.00000000E+00  0.00000000E+00  0.00000000E+00
  0.00000000E+00  0.00000000E+00  0.00000000E+00
  0.00000000E+00  0.00000000E+00  0.00000000E+00
  0.00000000E+00  0.00000000E+00  0.00000000E+00
  0.00000000E+00  0.00000000E+00  0.00000000E+00
  0.00000000E+00  0.00000000E+00  0.00000000E+00
  0.00000000E+00  0.00000000E+00  0.00000000E+00
  0.00000000E+00  0.00000000E+00  0.00000000E+00
