This file is generated by VASPKIT code
   1.000
   17.3823941941652436    0.0000000000000000    0.0000000000000010
    0.0000000000000028   18.2475883808102353    0.0000000000000010
    0.0000000000000000    0.0000000000000000   40
   Cs   Pb   I 
   40   32  104
Cartesian
    8.6253352054809316    8.8084576155963354    3.1601690157832278    Cs1
    8.6253352054809316    8.8084576155963354   15.8008450789161383    Cs2
    8.6253352054809316    8.8084576155963354   28.4415211420490550    Cs3
    8.6253352054809334   17.9322518060014531    3.1601690157832283    Cs4
    8.6253352054809334   17.9322518060014531   15.8008450789161383    Cs5
    8.6253352054809334   17.9322518060014531   28.4415211420490550    Cs6
   17.3165323025635516    8.8084576155963354    3.1601690157832283    Cs7
   17.3165323025635516    8.8084576155963354   15.8008450789161383    Cs8
   17.3165323025635516    8.8084576155963354   28.4415211420490550    Cs9
   17.3165323025635551   17.9322518060014531    3.1601690157832287   Cs10
   17.3165323025635551   17.9322518060014531   15.8008450789161383   Cs11
   17.3165323025635551   17.9322518060014531   28.4415211420490586   Cs12
    0.0658618916016921    0.3153365748087817    9.4805070473496844   Cs13
    0.0658618916016921    0.3153365748087817   22.1211831104825940   Cs14
    0.0658618916016935    9.4391307652138998    9.4805070473496844   Cs15
    0.0658618916016935    9.4391307652138998   22.1211831104825940   Cs16
    8.7570589886843138    0.3153365748087817    9.4805070473496844   Cs17
    8.7570589886843138    0.3153365748087817   22.1211831104825940   Cs18
    8.7570589886843155    9.4391307652138998    9.4805070473496862   Cs19
    8.7570589886843155    9.4391307652138998   22.1211831104825940   Cs20
    4.2797366569396198    4.8772336700113401    9.4805070473496844   Cs21
    4.2797366569396198    4.8772336700113401   22.1211831104825940   Cs22
    4.2797366569396207   14.0010278604164586    9.4805070473496862   Cs23
    4.2797366569396207   14.0010278604164586   22.1211831104825940   Cs24
   12.9709337540222407    4.8772336700113401    9.4805070473496862   Cs25
   12.9709337540222407    4.8772336700113401   22.1211831104825940   Cs26
   12.9709337540222425   14.0010278604164586    9.4805070473496862   Cs27
   12.9709337540222425   14.0010278604164586   22.1211831104825940   Cs28
    4.4114604401430038    4.2465605203937775    3.1601690157832274   Cs29
    4.4114604401430038    4.2465605203937775   15.8008450789161365   Cs30
    4.4114604401430038    4.2465605203937775   28.4415211420490550   Cs31
    4.4114604401430046   13.3703547107988943    3.1601690157832278   Cs32
    4.4114604401430046   13.3703547107988943   15.8008450789161383   Cs33
    4.4114604401430046   13.3703547107988943   28.4415211420490550   Cs34
   13.1026575372256247    4.2465605203937775    3.1601690157832278   Cs35
   13.1026575372256247    4.2465605203937775   15.8008450789161383   Cs36
   13.1026575372256247    4.2465605203937775   28.4415211420490550   Cs37
   13.1026575372256264   13.3703547107988943    3.1601690157832283   Cs38
   13.1026575372256264   13.3703547107988943   15.8008450789161383   Cs39
   13.1026575372256264   13.3703547107988943   28.4415211420490550   Cs40
    4.3455985485413109    0.0000000000000000   12.6406760631329114    Pb1
    4.3455985485413109    0.0000000000000000   25.2813521262658227    Pb2
    4.3455985485413127    9.1237941904051176   12.6406760631329114    Pb3
    4.3455985485413127    9.1237941904051176   25.2813521262658227    Pb4
   13.0367956456239327    0.0000000000000000   12.6406760631329114    Pb5
   13.0367956456239327    0.0000000000000000   25.2813521262658227    Pb6
   13.0367956456239344    9.1237941904051176   12.6406760631329131    Pb7
   13.0367956456239344    9.1237941904051176   25.2813521262658227    Pb8
    0.0000000000000007    4.5618970952025588   12.6406760631329114    Pb9
    0.0000000000000007    4.5618970952025588   25.2813521262658227   Pb10
    0.0000000000000021   13.6856912856076764   12.6406760631329114   Pb11
    0.0000000000000021   13.6856912856076764   25.2813521262658227   Pb12
    8.6911970970826218    4.5618970952025588   12.6406760631329114   Pb13
    8.6911970970826218    4.5618970952025588   25.2813521262658227   Pb14
    8.6911970970826236   13.6856912856076764   12.6406760631329131   Pb15
    8.6911970970826236   13.6856912856076764   25.2813521262658227   Pb16
    4.3455985485413109    0.0000000000000000    6.3203380315664583   Pb17
    4.3455985485413109    0.0000000000000000   18.9610140946993688   Pb18
    4.3455985485413127    9.1237941904051176    6.3203380315664592   Pb19
    4.3455985485413127    9.1237941904051176   18.9610140946993688   Pb20
   13.0367956456239327    0.0000000000000000    6.3203380315664592   Pb21
   13.0367956456239327    0.0000000000000000   18.9610140946993688   Pb22
   13.0367956456239344    9.1237941904051176    6.3203380315664592   Pb23
   13.0367956456239344    9.1237941904051176   18.9610140946993688   Pb24
    0.0000000000000007    4.5618970952025588    6.3203380315664583   Pb25
    0.0000000000000007    4.5618970952025588   18.9610140946993688   Pb26
    0.0000000000000021   13.6856912856076764    6.3203380315664592   Pb27
    0.0000000000000021   13.6856912856076764   18.9610140946993688   Pb28
    8.6911970970826218    4.5618970952025588    6.3203380315664592   Pb29
    8.6911970970826218    4.5618970952025588   18.9610140946993688   Pb30
    8.6911970970826236   13.6856912856076764    6.3203380315664592   Pb31
    8.6911970970826236   13.6856912856076764   18.9610140946993688   Pb32
    0.4474141353607170    4.6270501095162411    3.1601690157832274     I1
    0.4474141353607170    4.6270501095162411   15.8008450789161365     I2
    0.4474141353607170    4.6270501095162411   28.4415211420490550     I3
    0.4474141353607184   13.7508442999213578    3.1601690157832278     I4
    0.4474141353607184   13.7508442999213578   15.8008450789161365     I5
    0.4474141353607184   13.7508442999213578   28.4415211420490550     I6
    9.1386112324433384    4.6270501095162411    3.1601690157832278     I7
    9.1386112324433384    4.6270501095162411   15.8008450789161365     I8
    9.1386112324433384    4.6270501095162411   28.4415211420490550     I9
    9.1386112324433402   13.7508442999213578    3.1601690157832283    I10
    9.1386112324433402   13.7508442999213578   15.8008450789161383    I11
    9.1386112324433402   13.7508442999213578   28.4415211420490550    I12
    8.2437829617219052    4.4967440808888757    9.4805070473496844    I13
    8.2437829617219052    4.4967440808888757   22.1211831104825940    I14
    8.2437829617219069   13.6205382712939933    9.4805070473496862    I15
    8.2437829617219069   13.6205382712939933   22.1211831104825940    I16
   16.9349800588045269    4.4967440808888757    9.4805070473496862    I17
   16.9349800588045269    4.4967440808888757   22.1211831104825940    I18
   16.9349800588045305   13.6205382712939933    9.4805070473496862    I19
   16.9349800588045305   13.6205382712939933   22.1211831104825940    I20
    4.7930126839020293    9.0586411760914345    9.4805070473496844    I21
    4.7930126839020293    9.0586411760914345   22.1211831104825940    I22
    4.7930126839020302   18.1824353664965521    9.4805070473496862    I23
    4.7930126839020302   18.1824353664965521   22.1211831104825940    I24
   13.4842097809846511    9.0586411760914345    9.4805070473496862    I25
   13.4842097809846511    9.0586411760914345   22.1211831104825940    I26
   13.4842097809846528   18.1824353664965521    9.4805070473496862    I27
   13.4842097809846528   18.1824353664965521   22.1211831104825940    I28
    3.8981844131805947    0.0651530143136811    3.1601690157832274    I29
    3.8981844131805947    0.0651530143136811   15.8008450789161365    I30
    3.8981844131805947    0.0651530143136811   28.4415211420490550    I31
    3.8981844131805961    9.1889472047187990    3.1601690157832278    I32
    3.8981844131805961    9.1889472047187990   15.8008450789161365    I33
    3.8981844131805961    9.1889472047187990   28.4415211420490550    I34
   12.5893815102632161    0.0651530143136811    3.1601690157832278    I35
   12.5893815102632161    0.0651530143136811   15.8008450789161365    I36
   12.5893815102632161    0.0651530143136811   28.4415211420490550    I37
   12.5893815102632178    9.1889472047187990    3.1601690157832283    I38
   12.5893815102632178    9.1889472047187990   15.8008450789161383    I39
   12.5893815102632178    9.1889472047187990   28.4415211420490550    I40
    6.9236161962663463    1.8605606064841731   12.9683855900696319    I41
    6.9236161962663463    1.8605606064841731   25.6090616532025450    I42
    6.9236161962663481   10.9843547968892903   12.9683855900696337    I43
    6.9236161962663481   10.9843547968892903   25.6090616532025450    I44
   15.6148132933489681    1.8605606064841731   12.9683855900696337    I45
   15.6148132933489681    1.8605606064841731   25.6090616532025450    I46
   15.6148132933489698   10.9843547968892903   12.9683855900696337    I47
   15.6148132933489698   10.9843547968892903   25.6090616532025450    I48
    1.7675809008162764    7.2632335839209441   12.3129665361961926    I49
    1.7675809008162764    7.2632335839209441   24.9536425993291040    I50
    1.7675809008162777   16.3870277743260608   12.3129665361961944    I51
    1.7675809008162777   16.3870277743260608   24.9536425993291040    I52
   10.4587779978988991    7.2632335839209441   12.3129665361961944    I53
   10.4587779978988991    7.2632335839209441   24.9536425993291040    I54
   10.4587779978988991   16.3870277743260608   12.3129665361961944    I55
   10.4587779978988991   16.3870277743260608   24.9536425993291040    I56
    2.5780176477250358    2.7013364887183857   12.3129665361961926    I57
    2.5780176477250358    2.7013364887183857   24.9536425993291040    I58
    2.5780176477250372   11.8251306791235038   12.3129665361961926    I59
    2.5780176477250372   11.8251306791235038   24.9536425993291040    I60
   11.2692147448076572    2.7013364887183857   12.3129665361961926    I61
   11.2692147448076572    2.7013364887183857   24.9536425993291040    I62
   11.2692147448076589   11.8251306791235038   12.3129665361961944    I63
   11.2692147448076589   11.8251306791235038   24.9536425993291040    I64
    6.1131794493575873    6.4224577016867324   12.9683855900696319    I65
    6.1131794493575873    6.4224577016867324   25.6090616532025450    I66
    6.1131794493575891   15.5462518920918491   12.9683855900696337    I67
    6.1131794493575891   15.5462518920918491   25.6090616532025450    I68
   14.8043765464402099    6.4224577016867324   12.9683855900696337    I69
   14.8043765464402099    6.4224577016867324   25.6090616532025450    I70
   14.8043765464402099   15.5462518920918491   12.9683855900696337    I71
   14.8043765464402099   15.5462518920918491   25.6090616532025450    I72
    1.7675809008162764    7.2632335839209441    6.6480475585031762    I73
    1.7675809008162764    7.2632335839209441   19.2887236216360876    I74
    1.7675809008162777   16.3870277743260608    6.6480475585031762    I75
    1.7675809008162777   16.3870277743260608   19.2887236216360876    I76
   10.4587779978988991    7.2632335839209441    6.6480475585031762    I77
   10.4587779978988991    7.2632335839209441   19.2887236216360876    I78
   10.4587779978988991   16.3870277743260608    6.6480475585031771    I79
   10.4587779978988991   16.3870277743260608   19.2887236216360876    I80
    6.9236161962663463    1.8605606064841731    5.9926285046297361    I81
    6.9236161962663463    1.8605606064841731   18.6333045677626465    I82
    6.9236161962663481   10.9843547968892903    5.9926285046297361    I83
    6.9236161962663481   10.9843547968892903   18.6333045677626465    I84
   15.6148132933489681    1.8605606064841731    5.9926285046297361    I85
   15.6148132933489681    1.8605606064841731   18.6333045677626465    I86
   15.6148132933489698   10.9843547968892903    5.9926285046297370    I87
   15.6148132933489698   10.9843547968892903   18.6333045677626465    I88
    6.1131794493575873    6.4224577016867324    5.9926285046297361    I89
    6.1131794493575873    6.4224577016867324   18.6333045677626465    I90
    6.1131794493575891   15.5462518920918491    5.9926285046297361    I91
    6.1131794493575891   15.5462518920918491   18.6333045677626465    I92
   14.8043765464402099    6.4224577016867324    5.9926285046297361    I93
   14.8043765464402099    6.4224577016867324   18.6333045677626465    I94
   14.8043765464402099   15.5462518920918491    5.9926285046297370    I95
   14.8043765464402099   15.5462518920918491   18.6333045677626465    I96
    2.5780176477250358    2.7013364887183857    6.6480475585031753    I97
    2.5780176477250358    2.7013364887183857   19.2887236216360876    I98
    2.5780176477250372   11.8251306791235038    6.6480475585031762    I99
    2.5780176477250372   11.8251306791235038   19.2887236216360876   I100
   11.2692147448076572    2.7013364887183857    6.6480475585031762   I101
   11.2692147448076572    2.7013364887183857   19.2887236216360876   I102
   11.2692147448076589   11.8251306791235038    6.6480475585031762   I103
   11.2692147448076589   11.8251306791235038   19.2887236216360876   I104
