This file is generated by VASPKIT code  
   1.00000000000000     
    17.3823947905999994    0.0000000000000000    0.0000000000000000
     0.0000000000000000   18.2475891113000017    0.0000000000000000
     0.0000000000000000    0.0000000000000000   37.9220275878999971
   Cs   Pb   I 
    24    32    96
Direct
  0.5064576620100316  0.4805409719516208  0.4069151108168415
  0.5064576620100316  0.4805409719516208  0.7597515459290265
  0.5064576620100316  0.9805409421586425  0.4069151108168415
  0.5064576620100316  0.9805409421586425  0.7597515459290265
  0.9788821082800787  0.4737968707996730  0.4115878255600842
  0.9788821082800787  0.4737968707996730  0.7550788311857835
  0.9788821082800787  0.9737968410066944  0.4115878255600842
  0.9788821082800787  0.9737968410066944  0.7550788311857835
  0.0058294596022988  0.0351454945153883  0.5833333134607557
  0.0058294596022988  0.5351454907532494  0.5833333134607557
  0.5192378963599107  0.0348921050087612  0.5833333134607557
  0.5192378963599107  0.5348921012466219  0.5833333134607557
  0.2441705478966627  0.2851454907436569  0.5833333134607557
  0.2441705478966627  0.7851454907628346  0.5833333134607557
  0.7307621036257079  0.2848921012370298  0.5833333134607557
  0.7307621036257079  0.7848921012562071  0.5833333134607557
  0.2711178321625346  0.2237968260718461  0.4115878255600842
  0.2711178321625346  0.2237968260718461  0.7550788311857835
  0.2711178321625346  0.7237968409971021  0.4115878255600842
  0.2711178321625346  0.7237968409971021  0.7550788311857835
  0.7435423677758489  0.2305409272237941  0.4069151108168415
  0.7435423677758489  0.2305409272237941  0.7597515459290265
  0.7435423677758489  0.7305409421490502  0.4069151108168415
  0.7435423677758489  0.7305409421490502  0.7597515459290265
  0.2442768122009996 -0.0040404363740507  0.3380017520848425
  0.2522260849207915  0.0033331216868919  0.6653520805661046
  0.2442768122009996  0.4959595636451267  0.3380017520848425
  0.2522260849207915  0.5033331217060695  0.6653520805661046
  0.7509860708597546 -0.0060376188034096  0.3194992994711132
  0.7514636832644740  0.0034700764928024  0.6683168224491602
  0.7509860708597546  0.4939623812157679  0.3194992994711132
  0.7514636832644740  0.5034700765119804  0.6683168224491602
  0.0057231878191373  0.2459595636355417  0.3380017520848425
 -0.0022260849006546  0.2533331216964841  0.6653520805661046
  0.0057231878191373  0.7459595635999151  0.3380017520848425
 -0.0022260849006546  0.7533331216608579  0.6653520805661046
  0.4990139291258640  0.2439623812061828  0.3194992994711132
  0.4985363167211444  0.2534700765023947  0.6683168224491602
  0.4990139291258640  0.7439623811705560  0.3194992994711132
  0.4985363167211444  0.7534700764667686  0.6683168224491602
  0.2522260849207915  0.0033331216868919  0.5013146059777582
  0.2442768122009996 -0.0040404363740507  0.8286649046346573
  0.2522260849207915  0.5033331217060695  0.5013146059777582
  0.2442768122009996  0.4959595636451267  0.8286649046346573
  0.7514636832644740  0.0034700764928024  0.4983498640947022
  0.7509860708597546 -0.0060376188034096  0.8471673572483860
  0.7514636832644740  0.5034700765119804  0.4983498640947022
  0.7509860708597546  0.4939623812157679  0.8471673572483860
 -0.0022260849006546  0.2533331216964841  0.5013146059777582
  0.0057231878191373  0.2459595636355417  0.8286649046346573
 -0.0022260849006546  0.7533331216608579  0.5013146059777582
  0.0057231878191373  0.7459595635999151  0.8286649046346573
  0.4985363167211444  0.2534700765023947  0.4983498640947022
  0.4990139291258640  0.2439623812061828  0.8471673572483860
  0.4985363167211444  0.7534700764667686  0.4983498640947022
  0.4990139291258640  0.7439623811705560  0.8471673572483860
  0.0433528938766414  0.2574022402565869  0.4168173445370640
  0.0433528938766414  0.2574022402565869  0.7498493122088039
  0.0433528938766414  0.7574022402209680  0.4168173445370640
  0.0433528938766414  0.7574022402209680  0.7498493122088039
  0.5193729355285708  0.2588072854666160  0.4182970024127272
  0.5193729355285708  0.2588072854666160  0.7483696543331406
  0.5193729355285708  0.7588072854309965  0.4182970024127272
  0.5193729355285708  0.7588072854309965  0.7483696543331406
  0.4756956361645307  0.2434735349122400  0.2450114645906877
  0.4688698193356208  0.2448272167122855  0.5833333134607557
  0.4756956361645307  0.2434735349122400  0.9216552219531683
  0.4756956361645307  0.7434735498375028  0.2450114645906877
  0.4688698193356208  0.7448272316375482  0.5833333134607557
  0.4756956361645307  0.7434735498375028  0.9216552219531683
  0.9565265352496571  0.2485820640444959  0.5833333134607557
  0.9565265352496571  0.7485820789697587  0.5833333134607557
  0.2934734647934873  0.4985820789601660  0.5833333134607557
  0.2934734647934873  0.9985820789245469  0.5833333134607557
  0.7743043340208188  0.4934735498279106  0.2450114645906877
  0.7811301508497286  0.4948272316279559  0.5833333134607557
  0.7743043340208188  0.4934735498279106  0.9216552219531683
  0.7743043340208188  0.9934735497922910  0.2450114645906877
  0.7811301508497286  0.9948272315923363  0.5833333134607557
  0.7743043340208188  0.9934735497922910  0.9216552219531683
  0.2066471005631345  0.0074022432610957  0.4168173445370640
  0.2066471005631345  0.0074022432610957  0.7498493122088039
  0.2066471005631345  0.5074022402113757  0.4168173445370640
  0.2066471005631345  0.5074022402113757  0.7498493122088039
  0.7306270644570478  0.0088072884711247  0.4182970024127272
  0.7306270644570478  0.0088072884711247  0.7483696543331406
  0.7306270644570478  0.5088072854214042  0.4182970024127272
  0.7306270644570478  0.5088072854214042  0.7483696543331406
  0.3862552739536803  0.1097301733004374  0.3424295260129201
  0.4015762078960401  0.0997422836824667  0.6808037243143563
  0.3862552739536803  0.6097301435074584  0.3424295260129201
  0.4015762078960401  0.5997422538894877  0.6808037243143563
  0.8872256891156418  0.1135184326673725  0.3432215974614846
  0.9049693624535781  0.1010387794817206  0.6766516819682431
  0.8872256891156418  0.6135184028743936  0.3432215974614846
  0.9049693624535781  0.6010387496887419  0.6766516819682431
  0.1037824803615463  0.3930775242328759  0.3224595364083729
  0.0987010903934867  0.4005202815710520  0.6534314256240479
  0.1037824803615463  0.8930776136337252  0.3224595364083729
  0.0987010903934867  0.9005203709719013  0.6534314256240479
  0.6211110060784200  0.3733204522557509  0.3316061054489028
  0.6003236681153675  0.3993016238856371  0.6563692132365269
  0.6211110060784200  0.8733205416566000  0.3316061054489028
  0.6003236681153675  0.8993017132864862  0.6563692132365269
  0.1462175196010579  0.1430775242232833  0.3224595364083729
  0.1512989095691175  0.1505202815614596  0.6534314256240479
  0.1462175196010579  0.6430775540546244  0.3224595364083729
  0.1512989095691175  0.6505203113928005  0.6534314256240479
  0.6288889939647242  0.1233204522461586  0.3316061054489028
  0.6496763319277766  0.1493016238760449  0.6563692132365269
  0.6288889939647242  0.6233204820774992  0.3316061054489028
  0.6496763319277766  0.6493016537073855  0.6563692132365269
  0.3627742810697074  0.3635184326769578  0.3432215974614846
  0.3450306077317719  0.3510387794913060  0.6766516819682431
  0.3627742810697074  0.8635184028839860  0.3432215974614846
  0.3450306077317719  0.8510387496983343  0.6766516819682431
  0.8637447558322077  0.3597301733100224  0.3424295260129201
  0.8484238218898483  0.3497422836920520  0.6808037243143563
  0.8637447558322077  0.8597301435170507  0.3424295260129201
  0.8484238218898483  0.8497422538990800  0.6808037243143563
  0.0987010903934867  0.4005202815710520  0.5132352609198150
  0.1037824803615463  0.3930775242328759  0.8442070905131461
  0.0987010903934867  0.9005203709719013  0.5132352609198150
  0.1037824803615463  0.8930776136337252  0.8442070905131461
  0.6003236681153675  0.3993016238856371  0.5102974733073360
  0.6211110060784200  0.3733204522557509  0.8350605214726161
  0.6003236681153675  0.8993017132864862  0.5102974733073360
  0.6211110060784200  0.8733205416566000  0.8350605214726161
  0.4015762078960401  0.0997422836824667  0.4858629622295069
  0.3862552739536803  0.1097301733004374  0.8242371307065793
  0.4015762078960401  0.5997422538894877  0.4858629622295069
  0.3862552739536803  0.6097301435074584  0.8242371307065793
  0.9049693624535781  0.1010387794817206  0.4900150045756200
  0.8872256891156418  0.1135184326673725  0.8234450592580140
  0.9049693624535781  0.6010387496887419  0.4900150045756200
  0.8872256891156418  0.6135184028743936  0.8234450592580140
  0.3450306077317719  0.3510387794913059  0.4900150045756200
  0.3627742810697074  0.3635184326769578  0.8234450592580140
  0.3450306077317719  0.8510387496983343  0.4900150045756200
  0.3627742810697074  0.8635184028839860  0.8234450592580140
  0.8484238218898483  0.3497422836920520  0.4858629622295069
  0.8637447558322077  0.3597301733100224  0.8242371307065793
  0.8484238218898483  0.8497422538990800  0.4858629622295069
  0.8637447558322077  0.8597301435170507  0.8242371307065793
  0.1512989095691175  0.1505202815614596  0.5132352609198150
  0.1462175196010579  0.1430775242232833  0.8442070905131461
  0.1512989095691175  0.6505203113928005  0.5132352609198150
  0.1462175196010579  0.6430775540546244  0.8442070905131461
  0.6496763319277766  0.1493016238760449  0.5102974733073360
  0.6288889939647242  0.1233204522461586  0.8350605214726161
  0.6496763319277766  0.6493016537073855  0.5102974733073360
  0.6288889939647242  0.6233204820774992  0.8350605214726161
 
  0.00000000E+00  0.00000000E+00  0.00000000E+00
  0.00000000E+00  0.00000000E+00  0.00000000E+00
  0.00000000E+00  0.00000000E+00  0.00000000E+00
  0.00000000E+00  0.00000000E+00  0.00000000E+00
  0.00000000E+00  0.00000000E+00  0.00000000E+00
  0.00000000E+00  0.00000000E+00  0.00000000E+00
  0.00000000E+00  0.00000000E+00  0.00000000E+00
  0.00000000E+00  0.00000000E+00  0.00000000E+00
  0.00000000E+00  0.00000000E+00  0.00000000E+00
  0.00000000E+00  0.00000000E+00  0.00000000E+00
  0.00000000E+00  0.00000000E+00  0.00000000E+00
  0.00000000E+00  0.00000000E+00  0.00000000E+00
  0.00000000E+00  0.00000000E+00  0.00000000E+00
  0.00000000E+00  0.00000000E+00  0.00000000E+00
  0.00000000E+00  0.00000000E+00  0.00000000E+00
  0.00000000E+00  0.00000000E+00  0.00000000E+00
  0.00000000E+00  0.00000000E+00  0.00000000E+00
  0.00000000E+00  0.00000000E+00  0.00000000E+00
  0.00000000E+00  0.00000000E+00  0.00000000E+00
  0.00000000E+00  0.00000000E+00  0.00000000E+00
  0.00000000E+00  0.00000000E+00  0.00000000E+00
  0.00000000E+00  0.00000000E+00  0.00000000E+00
  0.00000000E+00  0.00000000E+00  0.00000000E+00
  0.00000000E+00  0.00000000E+00  0.00000000E+00
  0.00000000E+00  0.00000000E+00  0.00000000E+00
  0.00000000E+00  0.00000000E+00  0.00000000E+00
  0.00000000E+00  0.00000000E+00  0.00000000E+00
  0.00000000E+00  0.00000000E+00  0.00000000E+00
  0.00000000E+00  0.00000000E+00  0.00000000E+00
  0.00000000E+00  0.00000000E+00  0.00000000E+00
  0.00000000E+00  0.00000000E+00  0.00000000E+00
  0.00000000E+00  0.00000000E+00  0.00000000E+00
  0.00000000E+00  0.00000000E+00  0.00000000E+00
  0.00000000E+00  0.00000000E+00  0.00000000E+00
  0.00000000E+00  0.00000000E+00  0.00000000E+00
  0.00000000E+00  0.00000000E+00  0.00000000E+00
  0.00000000E+00  0.00000000E+00  0.00000000E+00
  0.00000000E+00  0.00000000E+00  0.00000000E+00
  0.00000000E+00  0.00000000E+00  0.00000000E+00
  0.00000000E+00  0.00000000E+00  0.00000000E+00
  0.00000000E+00  0.00000000E+00  0.00000000E+00
  0.00000000E+00  0.00000000E+00  0.00000000E+00
  0.00000000E+00  0.00000000E+00  0.00000000E+00
  0.00000000E+00  0.00000000E+00  0.00000000E+00
  0.00000000E+00  0.00000000E+00  0.00000000E+00
  0.00000000E+00  0.00000000E+00  0.00000000E+00
  0.00000000E+00  0.00000000E+00  0.00000000E+00
  0.00000000E+00  0.00000000E+00  0.00000000E+00
  0.00000000E+00  0.00000000E+00  0.00000000E+00
  0.00000000E+00  0.00000000E+00  0.00000000E+00
  0.00000000E+00  0.00000000E+00  0.00000000E+00
  0.00000000E+00  0.00000000E+00  0.00000000E+00
  0.00000000E+00  0.00000000E+00  0.00000000E+00
  0.00000000E+00  0.00000000E+00  0.00000000E+00
  0.00000000E+00  0.00000000E+00  0.00000000E+00
  0.00000000E+00  0.00000000E+00  0.00000000E+00
  0.00000000E+00  0.00000000E+00  0.00000000E+00
  0.00000000E+00  0.00000000E+00  0.00000000E+00
  0.00000000E+00  0.00000000E+00  0.00000000E+00
  0.00000000E+00  0.00000000E+00  0.00000000E+00
  0.00000000E+00  0.00000000E+00  0.00000000E+00
  0.00000000E+00  0.00000000E+00  0.00000000E+00
  0.00000000E+00  0.00000000E+00  0.00000000E+00
  0.00000000E+00  0.00000000E+00  0.00000000E+00
  0.00000000E+00  0.00000000E+00  0.00000000E+00
  0.00000000E+00  0.00000000E+00  0.00000000E+00
  0.00000000E+00  0.00000000E+00  0.00000000E+00
  0.00000000E+00  0.00000000E+00  0.00000000E+00
  0.00000000E+00  0.00000000E+00  0.00000000E+00
  0.00000000E+00  0.00000000E+00  0.00000000E+00
  0.00000000E+00  0.00000000E+00  0.00000000E+00
  0.00000000E+00  0.00000000E+00  0.00000000E+00
  0.00000000E+00  0.00000000E+00  0.00000000E+00
  0.00000000E+00  0.00000000E+00  0.00000000E+00
  0.00000000E+00  0.00000000E+00  0.00000000E+00
  0.00000000E+00  0.00000000E+00  0.00000000E+00
  0.00000000E+00  0.00000000E+00  0.00000000E+00
  0.00000000E+00  0.00000000E+00  0.00000000E+00
  0.00000000E+00  0.00000000E+00  0.00000000E+00
  0.00000000E+00  0.00000000E+00  0.00000000E+00
  0.00000000E+00  0.00000000E+00  0.00000000E+00
  0.00000000E+00  0.00000000E+00  0.00000000E+00
  0.00000000E+00  0.00000000E+00  0.00000000E+00
  0.00000000E+00  0.00000000E+00  0.00000000E+00
  0.00000000E+00  0.00000000E+00  0.00000000E+00
  0.00000000E+00  0.00000000E+00  0.00000000E+00
  0.00000000E+00  0.00000000E+00  0.00000000E+00
  0.00000000E+00  0.00000000E+00  0.00000000E+00
  0.00000000E+00  0.00000000E+00  0.00000000E+00
  0.00000000E+00  0.00000000E+00  0.00000000E+00
  0.00000000E+00  0.00000000E+00  0.00000000E+00
  0.00000000E+00  0.00000000E+00  0.00000000E+00
  0.00000000E+00  0.00000000E+00  0.00000000E+00
  0.00000000E+00  0.00000000E+00  0.00000000E+00
  0.00000000E+00  0.00000000E+00  0.00000000E+00
  0.00000000E+00  0.00000000E+00  0.00000000E+00
  0.00000000E+00  0.00000000E+00  0.00000000E+00
  0.00000000E+00  0.00000000E+00  0.00000000E+00
  0.00000000E+00  0.00000000E+00  0.00000000E+00
  0.00000000E+00  0.00000000E+00  0.00000000E+00
  0.00000000E+00  0.00000000E+00  0.00000000E+00
  0.00000000E+00  0.00000000E+00  0.00000000E+00
  0.00000000E+00  0.00000000E+00  0.00000000E+00
  0.00000000E+00  0.00000000E+00  0.00000000E+00
  0.00000000E+00  0.00000000E+00  0.00000000E+00
  0.00000000E+00  0.00000000E+00  0.00000000E+00
  0.00000000E+00  0.00000000E+00  0.00000000E+00
  0.00000000E+00  0.00000000E+00  0.00000000E+00
  0.00000000E+00  0.00000000E+00  0.00000000E+00
  0.00000000E+00  0.00000000E+00  0.00000000E+00
  0.00000000E+00  0.00000000E+00  0.00000000E+00
  0.00000000E+00  0.00000000E+00  0.00000000E+00
  0.00000000E+00  0.00000000E+00  0.00000000E+00
  0.00000000E+00  0.00000000E+00  0.00000000E+00
  0.00000000E+00  0.00000000E+00  0.00000000E+00
  0.00000000E+00  0.00000000E+00  0.00000000E+00
  0.00000000E+00  0.00000000E+00  0.00000000E+00
  0.00000000E+00  0.00000000E+00  0.00000000E+00
  0.00000000E+00  0.00000000E+00  0.00000000E+00
  0.00000000E+00  0.00000000E+00  0.00000000E+00
  0.00000000E+00  0.00000000E+00  0.00000000E+00
  0.00000000E+00  0.00000000E+00  0.00000000E+00
  0.00000000E+00  0.00000000E+00  0.00000000E+00
  0.00000000E+00  0.00000000E+00  0.00000000E+00
  0.00000000E+00  0.00000000E+00  0.00000000E+00
  0.00000000E+00  0.00000000E+00  0.00000000E+00
  0.00000000E+00  0.00000000E+00  0.00000000E+00
  0.00000000E+00  0.00000000E+00  0.00000000E+00
  0.00000000E+00  0.00000000E+00  0.00000000E+00
  0.00000000E+00  0.00000000E+00  0.00000000E+00
  0.00000000E+00  0.00000000E+00  0.00000000E+00
  0.00000000E+00  0.00000000E+00  0.00000000E+00
  0.00000000E+00  0.00000000E+00  0.00000000E+00
  0.00000000E+00  0.00000000E+00  0.00000000E+00
  0.00000000E+00  0.00000000E+00  0.00000000E+00
  0.00000000E+00  0.00000000E+00  0.00000000E+00
  0.00000000E+00  0.00000000E+00  0.00000000E+00
  0.00000000E+00  0.00000000E+00  0.00000000E+00
  0.00000000E+00  0.00000000E+00  0.00000000E+00
  0.00000000E+00  0.00000000E+00  0.00000000E+00
  0.00000000E+00  0.00000000E+00  0.00000000E+00
  0.00000000E+00  0.00000000E+00  0.00000000E+00
  0.00000000E+00  0.00000000E+00  0.00000000E+00
  0.00000000E+00  0.00000000E+00  0.00000000E+00
  0.00000000E+00  0.00000000E+00  0.00000000E+00
  0.00000000E+00  0.00000000E+00  0.00000000E+00
  0.00000000E+00  0.00000000E+00  0.00000000E+00
  0.00000000E+00  0.00000000E+00  0.00000000E+00
  0.00000000E+00  0.00000000E+00  0.00000000E+00
  0.00000000E+00  0.00000000E+00  0.00000000E+00
  0.00000000E+00  0.00000000E+00  0.00000000E+00
  0.00000000E+00  0.00000000E+00  0.00000000E+00
