This file is generated by VASPKIT code  
   1.00000000000000     
    12.6406755447000005    0.0000000000000000    0.0000000000000000
     0.0000000000000000   25.2016296386999983    0.0000000000000000
     0.0000000000000000    1.8348134680999999   51.7578896671000024
   Cs   Pb   I 
    32    32    96
Direct
  0.2499999999861586  0.4862293021755867  0.2290669152075557
  0.2499999999861586  0.4930559291386864  0.4725372053241197
  0.2499999999861586  0.0045367173902682  0.2277901688592324
  0.2499999999861586  0.0052311794366545  0.4764661712148111
  0.2499999999861586  0.2533790489744409  0.1292532182675518
  0.2499999999861586  0.2486567209765886  0.3544504205016563
  0.2499999999861586  0.2520074177238494  0.5950503688631021
  0.2499999999861586  0.7455358128182783  0.3531051981388901
  0.7500000000375735  0.0266370748297767  0.2569728039682635
  0.7500000000375735  0.0334637111113031  0.5004420957056346
  0.7500000000375735  0.5144617779475182  0.2530438380775722
  0.7500000000375735  0.5151562399994398  0.5017188420539581
  0.7500000000375735  0.2676855694864917  0.1344596553255613
  0.7500000000375735  0.2710362662469261  0.3750595887907198
  0.7500000000375735  0.2663139382552554  0.6002558001034385
  0.7500000000375735  0.7741572041771119  0.3764048111534860
  0.7500000000375735  0.0344427162371770  0.1310997208029317
  0.7500000000375735  0.0384685498225889  0.3709657563626379
  0.7500000000375735  0.0564409290594116  0.6072091219057135
  0.7500000000375735  0.5303866559194200  0.3710900439454367
  0.7500000000375735  0.2811591304170696  0.2468225457928572
  0.7500000000375735  0.2866501680349594  0.4925333976379703
  0.7500000000375735  0.7761901212081409  0.2463167519177080
  0.7500000000375735  0.7789243854969268  0.4951097313696231
  0.2499999999861586  0.4632520730189865  0.1223008724710633
  0.2499999999861586  0.4812244448210808  0.3585442529297382
  0.2499999999861586  0.4852502989084856  0.5984102810316517
  0.2499999999861586  0.9893063611156540  0.3584199653469394
  0.2499999999861586  0.2330428340699489  0.2369766116350860
  0.2499999999861586  0.2385338865795854  0.4826874486032462
  0.2499999999861586  0.7407685719005546  0.2344002779034333
  0.2499999999861586  0.7435028958004227  0.4831932424783955
 -0.0002698121420625  0.3827121778170248  0.3024903700572090
  0.0055783603581983  0.3883485716637794  0.5500682174060944
  0.0014040803626449  0.8836441885471872  0.3047196291875088
 -0.0023988220615436  0.8886934807121828  0.5421573175627045
 -0.0055783603581983  0.1313444304333557  0.1794407935070888
  0.0002698121420625  0.1369808242932765  0.4270186259596946
  0.0023988220615436  0.6309994766775252  0.1873516933504791
 -0.0014040803626449  0.6360488284550171  0.4247893668293948
  0.0006402867387709  0.1341384979665719  0.3040197212119030
  0.0051735966368022  0.1374527690590244  0.5517158171694267
 -0.0006312140135573  0.6330307652703498  0.3048971829983087
  0.0067883461596550  0.6341724992524277  0.5439481222832547
 -0.0051735966368022  0.3822402181581236  0.1777931937437569
 -0.0006402867387709  0.3855544892240657  0.4254892748050007
 -0.0067883461596550  0.8855204581372874  0.1855608886299288
  0.0006312140135573  0.8866622517715311  0.4246118130185950
  0.5002698121143727  0.3827121778170248  0.3024903700572090
  0.4944216396141118  0.3883485716637794  0.5500682174060944
  0.4985959196096654  0.8836441885471872  0.3047196291875088
  0.5023988220338538  0.8886934807121828  0.5421573175627045
  0.5055783603305086  0.1313444304333557  0.1794407935070888
  0.4997301878302476  0.1369808242932765  0.4270186259596946
  0.4976011779107666  0.6309994766775252  0.1873516933504791
  0.5014040803349554  0.6360488284550171  0.4247893668293948
  0.4993597132335392  0.1341384979665719  0.3040197212119030
  0.4948264033355080  0.1374527690590244  0.5517158171694267
  0.5006312139858676  0.6330307652703498  0.3048971829983087
  0.4932116538126552  0.6341724992524277  0.5439481222832547
  0.5051735966091121  0.3822402181581236  0.1777931937437569
  0.5006402867110811  0.3855544892240657  0.4254892748050007
  0.5067883461319650  0.8855204581372874  0.1855608886299288
  0.4993687859587528  0.8866622517715311  0.4246118130185950
  0.2499999999861586  0.1175017126428436  0.3150995327141417
  0.2499999999861586  0.1174781815654701  0.5597525995685102
  0.2499999999861586  0.6143147613344546  0.3161581726634248
  0.2499999999861586  0.6300494615413693  0.5642570170876574
  0.2499999999861586  0.3595316268585337  0.1867786667797428
  0.2499999999861586  0.3639698988623978  0.4339449641887474
  0.2499999999861586  0.8715329422018262  0.1907501471890951
  0.2499999999861586  0.8705536375276934  0.4377842290600034
  0.7500000000375735  0.4022148056183608  0.1697574097238659
  0.7500000000375735  0.4021912820271659  0.4144104467856820
  0.7500000000375735  0.8896435554937047  0.1652529922047189
  0.7500000000375735  0.9053782556475987  0.4133518068363989
  0.7500000000375735  0.1557240867092516  0.2955650451036287
  0.7500000000375735  0.1601613901514723  0.5427313574089200
  0.7500000000375735  0.6491403331361867  0.2917257802323727
  0.7500000000375735  0.6481600747803976  0.5387598769995677
  0.7500000000375735  0.1116746735702645  0.1931655048220665
  0.7500000000375735  0.1139604718197241  0.4349117096825602
  0.7500000000375735  0.6113628166243773  0.1918759763388762
  0.7500000000375735  0.6100437388975786  0.4359097041429318
  0.7500000000375735  0.3606677628985728  0.3109631394372392
  0.7500000000375735  0.3804668311113509  0.5512273547282032
  0.7500000000375735  0.8574817740209280  0.3107442015142720
  0.7500000000375735  0.8674192057038106  0.5570502800724123
  0.2499999999861586  0.4057325302837774  0.2945982996098159
  0.2499999999861586  0.4080183210999085  0.5363445193665893
  0.2499999999861586  0.9096492184984959  0.2936003051494442
  0.2499999999861586  0.9083302003975303  0.5376340478497799
  0.2499999999861586  0.1392261710186609  0.1782826694604523
  0.2499999999861586  0.1590252392326754  0.4185468400432577
  0.2499999999861586  0.6522738113180970  0.1724597441162433
  0.2499999999861586  0.6622111834028932  0.4187657779662249
  0.0253219537966045  0.3593594779777883  0.1191818616550200
  0.0357940000047503  0.3601236251444317  0.3642539129314794
  0.0401594714204185  0.3640824219874358  0.6082297357406801
  0.0430941914808093  0.8588325225751151  0.3649195326520772
  0.0311902017894488  0.1081477815748192  0.2447385402723304
  0.0348670136704642  0.1142526464784368  0.4876576846203148
  0.0502291312221205  0.6041085627369814  0.2441987462827681
  0.0488093699417944  0.6092664163906657  0.4874934021037120
  0.9598405471940887  0.1556105801306462  0.1212802586360968
  0.9642060186097569  0.1595693769590699  0.3652560963608967
  0.9746780648179025  0.1603335241131582  0.6103281401795563
  0.9569058271336978  0.6608604944599589  0.3645904766402989
  0.9651330049440434  0.4054413614741224  0.2418523246527419
  0.9688098168250582  0.4115452205021718  0.4847714541237660
  0.9511906486727129  0.9104276138739441  0.2420166071693441
  0.9497708873923867  0.9155843946722665  0.4853112481133282
  0.9582023939040583  0.5088515237687278  0.3158274204269476
  0.9734144357182070  0.5151790510667515  0.5635050758102028
  0.9580715908195424  0.0065535306042735  0.3171121320893689
  0.9566434341519040  0.0105683047851700  0.5597955503776593
  0.9665920557020219  0.2554361601860328  0.1930649864930826
  0.9576325601697773  0.2606587114166363  0.4382539054842563
  0.9748157868038013  0.7557210040635335  0.1956261474922652
  0.9567474177135461  0.7601966087564953  0.4378200162325271
  0.0265855828963003  0.0045139323871636  0.1660049334821803
  0.0417976247104494  0.0108414978655331  0.4136815755706435
  0.0433565844626030  0.5091247121983190  0.1697144589147239
  0.0419284277949649  0.5131394863874290  0.4123968639082222
  0.0423674584447298  0.2590343056133360  0.2912550905326545
  0.0334079629124854  0.2642578402989210  0.5364440244201082
  0.0432526009009610  0.7594963486463862  0.2916889797843837
  0.0251842318107059  0.7639730261933030  0.5338828634209251
  0.5401594528019535  0.1556105801306462  0.1212802586360968
  0.5357939813862854  0.1595693769590699  0.3652560963608967
  0.5253219351781397  0.1603335241131582  0.6103281401795563
  0.5430941728623445  0.6608604944599589  0.3645904766402989
  0.5348669950519989  0.4054413614741224  0.2418523246527419
  0.5311901831709841  0.4115452205021718  0.4847714541237660
  0.5488093513233294  0.9104276138739441  0.2420166071693441
  0.5502291126036556  0.9155843946722665  0.4853112481133282
  0.4746780350212362  0.3593594779777883  0.1191818616550200
  0.4642059888130904  0.3601236251444317  0.3642539129314794
  0.4598405173974224  0.3640824219874358  0.6082297357406801
  0.4569057973370316  0.8588325225751151  0.3649195326520772
  0.4688097870283920  0.1081477815748193  0.2447385402723304
  0.4651329751473766  0.1142526464784368  0.4876576846203148
  0.4497708575957203  0.6041085627369814  0.2441987462827681
  0.4511906188760464  0.6092664163906657  0.4874934021037120
  0.4734144059215407  0.0045139323871636  0.1660049334821803
  0.4582023641073913  0.0108414978655331  0.4136815755706435
  0.4566434043552376  0.5091247121983190  0.1697144589147239
  0.4580715610228758  0.5131394863874290  0.4123968639082222
  0.4576325303731110  0.2590343056133360  0.2912550905326545
  0.4665920259053555  0.2642578402989210  0.5364440244201082
  0.4567473879168798  0.7594963486463862  0.2916889797843837
  0.4748157570071349  0.7639730261933030  0.5338828634209251
  0.5417976060919840  0.5088515237687278  0.3158274204269476
  0.5265855642778353  0.5151790510667515  0.5635050758102029
  0.5419284091764999  0.0065535306042735  0.3171121320893689
  0.5433565658441383  0.0105683047851700  0.5597955503776593
  0.5334079442940204  0.2554361601860328  0.1930649864930826
  0.5423674398262650  0.2606587114166363  0.4382539054842563
  0.5251842131922410  0.7557210040635335  0.1956261474922652
  0.5432525822824962  0.7601966087564953  0.4378200162325271
 
  0.00000000E+00  0.00000000E+00  0.00000000E+00
  0.00000000E+00  0.00000000E+00  0.00000000E+00
  0.00000000E+00  0.00000000E+00  0.00000000E+00
  0.00000000E+00  0.00000000E+00  0.00000000E+00
  0.00000000E+00  0.00000000E+00  0.00000000E+00
  0.00000000E+00  0.00000000E+00  0.00000000E+00
  0.00000000E+00  0.00000000E+00  0.00000000E+00
  0.00000000E+00  0.00000000E+00  0.00000000E+00
  0.00000000E+00  0.00000000E+00  0.00000000E+00
  0.00000000E+00  0.00000000E+00  0.00000000E+00
  0.00000000E+00  0.00000000E+00  0.00000000E+00
  0.00000000E+00  0.00000000E+00  0.00000000E+00
  0.00000000E+00  0.00000000E+00  0.00000000E+00
  0.00000000E+00  0.00000000E+00  0.00000000E+00
  0.00000000E+00  0.00000000E+00  0.00000000E+00
  0.00000000E+00  0.00000000E+00  0.00000000E+00
  0.00000000E+00  0.00000000E+00  0.00000000E+00
  0.00000000E+00  0.00000000E+00  0.00000000E+00
  0.00000000E+00  0.00000000E+00  0.00000000E+00
  0.00000000E+00  0.00000000E+00  0.00000000E+00
  0.00000000E+00  0.00000000E+00  0.00000000E+00
  0.00000000E+00  0.00000000E+00  0.00000000E+00
  0.00000000E+00  0.00000000E+00  0.00000000E+00
  0.00000000E+00  0.00000000E+00  0.00000000E+00
  0.00000000E+00  0.00000000E+00  0.00000000E+00
  0.00000000E+00  0.00000000E+00  0.00000000E+00
  0.00000000E+00  0.00000000E+00  0.00000000E+00
  0.00000000E+00  0.00000000E+00  0.00000000E+00
  0.00000000E+00  0.00000000E+00  0.00000000E+00
  0.00000000E+00  0.00000000E+00  0.00000000E+00
  0.00000000E+00  0.00000000E+00  0.00000000E+00
  0.00000000E+00  0.00000000E+00  0.00000000E+00
  0.00000000E+00  0.00000000E+00  0.00000000E+00
  0.00000000E+00  0.00000000E+00  0.00000000E+00
  0.00000000E+00  0.00000000E+00  0.00000000E+00
  0.00000000E+00  0.00000000E+00  0.00000000E+00
  0.00000000E+00  0.00000000E+00  0.00000000E+00
  0.00000000E+00  0.00000000E+00  0.00000000E+00
  0.00000000E+00  0.00000000E+00  0.00000000E+00
  0.00000000E+00  0.00000000E+00  0.00000000E+00
  0.00000000E+00  0.00000000E+00  0.00000000E+00
  0.00000000E+00  0.00000000E+00  0.00000000E+00
  0.00000000E+00  0.00000000E+00  0.00000000E+00
  0.00000000E+00  0.00000000E+00  0.00000000E+00
  0.00000000E+00  0.00000000E+00  0.00000000E+00
  0.00000000E+00  0.00000000E+00  0.00000000E+00
  0.00000000E+00  0.00000000E+00  0.00000000E+00
  0.00000000E+00  0.00000000E+00  0.00000000E+00
  0.00000000E+00  0.00000000E+00  0.00000000E+00
  0.00000000E+00  0.00000000E+00  0.00000000E+00
  0.00000000E+00  0.00000000E+00  0.00000000E+00
  0.00000000E+00  0.00000000E+00  0.00000000E+00
  0.00000000E+00  0.00000000E+00  0.00000000E+00
  0.00000000E+00  0.00000000E+00  0.00000000E+00
  0.00000000E+00  0.00000000E+00  0.00000000E+00
  0.00000000E+00  0.00000000E+00  0.00000000E+00
  0.00000000E+00  0.00000000E+00  0.00000000E+00
  0.00000000E+00  0.00000000E+00  0.00000000E+00
  0.00000000E+00  0.00000000E+00  0.00000000E+00
  0.00000000E+00  0.00000000E+00  0.00000000E+00
  0.00000000E+00  0.00000000E+00  0.00000000E+00
  0.00000000E+00  0.00000000E+00  0.00000000E+00
  0.00000000E+00  0.00000000E+00  0.00000000E+00
  0.00000000E+00  0.00000000E+00  0.00000000E+00
  0.00000000E+00  0.00000000E+00  0.00000000E+00
  0.00000000E+00  0.00000000E+00  0.00000000E+00
  0.00000000E+00  0.00000000E+00  0.00000000E+00
  0.00000000E+00  0.00000000E+00  0.00000000E+00
  0.00000000E+00  0.00000000E+00  0.00000000E+00
  0.00000000E+00  0.00000000E+00  0.00000000E+00
  0.00000000E+00  0.00000000E+00  0.00000000E+00
  0.00000000E+00  0.00000000E+00  0.00000000E+00
  0.00000000E+00  0.00000000E+00  0.00000000E+00
  0.00000000E+00  0.00000000E+00  0.00000000E+00
  0.00000000E+00  0.00000000E+00  0.00000000E+00
  0.00000000E+00  0.00000000E+00  0.00000000E+00
  0.00000000E+00  0.00000000E+00  0.00000000E+00
  0.00000000E+00  0.00000000E+00  0.00000000E+00
  0.00000000E+00  0.00000000E+00  0.00000000E+00
  0.00000000E+00  0.00000000E+00  0.00000000E+00
  0.00000000E+00  0.00000000E+00  0.00000000E+00
  0.00000000E+00  0.00000000E+00  0.00000000E+00
  0.00000000E+00  0.00000000E+00  0.00000000E+00
  0.00000000E+00  0.00000000E+00  0.00000000E+00
  0.00000000E+00  0.00000000E+00  0.00000000E+00
  0.00000000E+00  0.00000000E+00  0.00000000E+00
  0.00000000E+00  0.00000000E+00  0.00000000E+00
  0.00000000E+00  0.00000000E+00  0.00000000E+00
  0.00000000E+00  0.00000000E+00  0.00000000E+00
  0.00000000E+00  0.00000000E+00  0.00000000E+00
  0.00000000E+00  0.00000000E+00  0.00000000E+00
  0.00000000E+00  0.00000000E+00  0.00000000E+00
  0.00000000E+00  0.00000000E+00  0.00000000E+00
  0.00000000E+00  0.00000000E+00  0.00000000E+00
  0.00000000E+00  0.00000000E+00  0.00000000E+00
  0.00000000E+00  0.00000000E+00  0.00000000E+00
  0.00000000E+00  0.00000000E+00  0.00000000E+00
  0.00000000E+00  0.00000000E+00  0.00000000E+00
  0.00000000E+00  0.00000000E+00  0.00000000E+00
  0.00000000E+00  0.00000000E+00  0.00000000E+00
  0.00000000E+00  0.00000000E+00  0.00000000E+00
  0.00000000E+00  0.00000000E+00  0.00000000E+00
  0.00000000E+00  0.00000000E+00  0.00000000E+00
  0.00000000E+00  0.00000000E+00  0.00000000E+00
  0.00000000E+00  0.00000000E+00  0.00000000E+00
  0.00000000E+00  0.00000000E+00  0.00000000E+00
  0.00000000E+00  0.00000000E+00  0.00000000E+00
  0.00000000E+00  0.00000000E+00  0.00000000E+00
  0.00000000E+00  0.00000000E+00  0.00000000E+00
  0.00000000E+00  0.00000000E+00  0.00000000E+00
  0.00000000E+00  0.00000000E+00  0.00000000E+00
  0.00000000E+00  0.00000000E+00  0.00000000E+00
  0.00000000E+00  0.00000000E+00  0.00000000E+00
  0.00000000E+00  0.00000000E+00  0.00000000E+00
  0.00000000E+00  0.00000000E+00  0.00000000E+00
  0.00000000E+00  0.00000000E+00  0.00000000E+00
  0.00000000E+00  0.00000000E+00  0.00000000E+00
  0.00000000E+00  0.00000000E+00  0.00000000E+00
  0.00000000E+00  0.00000000E+00  0.00000000E+00
  0.00000000E+00  0.00000000E+00  0.00000000E+00
  0.00000000E+00  0.00000000E+00  0.00000000E+00
  0.00000000E+00  0.00000000E+00  0.00000000E+00
  0.00000000E+00  0.00000000E+00  0.00000000E+00
  0.00000000E+00  0.00000000E+00  0.00000000E+00
  0.00000000E+00  0.00000000E+00  0.00000000E+00
  0.00000000E+00  0.00000000E+00  0.00000000E+00
  0.00000000E+00  0.00000000E+00  0.00000000E+00
  0.00000000E+00  0.00000000E+00  0.00000000E+00
  0.00000000E+00  0.00000000E+00  0.00000000E+00
  0.00000000E+00  0.00000000E+00  0.00000000E+00
  0.00000000E+00  0.00000000E+00  0.00000000E+00
  0.00000000E+00  0.00000000E+00  0.00000000E+00
  0.00000000E+00  0.00000000E+00  0.00000000E+00
  0.00000000E+00  0.00000000E+00  0.00000000E+00
  0.00000000E+00  0.00000000E+00  0.00000000E+00
  0.00000000E+00  0.00000000E+00  0.00000000E+00
  0.00000000E+00  0.00000000E+00  0.00000000E+00
  0.00000000E+00  0.00000000E+00  0.00000000E+00
  0.00000000E+00  0.00000000E+00  0.00000000E+00
  0.00000000E+00  0.00000000E+00  0.00000000E+00
  0.00000000E+00  0.00000000E+00  0.00000000E+00
  0.00000000E+00  0.00000000E+00  0.00000000E+00
  0.00000000E+00  0.00000000E+00  0.00000000E+00
  0.00000000E+00  0.00000000E+00  0.00000000E+00
  0.00000000E+00  0.00000000E+00  0.00000000E+00
  0.00000000E+00  0.00000000E+00  0.00000000E+00
  0.00000000E+00  0.00000000E+00  0.00000000E+00
  0.00000000E+00  0.00000000E+00  0.00000000E+00
  0.00000000E+00  0.00000000E+00  0.00000000E+00
  0.00000000E+00  0.00000000E+00  0.00000000E+00
  0.00000000E+00  0.00000000E+00  0.00000000E+00
  0.00000000E+00  0.00000000E+00  0.00000000E+00
  0.00000000E+00  0.00000000E+00  0.00000000E+00
  0.00000000E+00  0.00000000E+00  0.00000000E+00
  0.00000000E+00  0.00000000E+00  0.00000000E+00
  0.00000000E+00  0.00000000E+00  0.00000000E+00
  0.00000000E+00  0.00000000E+00  0.00000000E+00
  0.00000000E+00  0.00000000E+00  0.00000000E+00
  0.00000000E+00  0.00000000E+00  0.00000000E+00
  0.00000000E+00  0.00000000E+00  0.00000000E+00
