This file is generated by VASPKIT code
1.0
       12.6406755447         0.0000000000         0.0000000000
        0.0000000000        25.2016296387         0.0000000000
        0.0000000000         1.8348134681        51.7578896671
   Cs   Pb    I
   32   32   96
Cartesian
     3.160168886        13.029520629        12.320758882
     3.160168886        13.641115512        24.906725329
     3.160168886        25.630334697        12.320758882
     3.160168886         1.040299191        24.906725329
     3.160168886         6.423315402         6.027775658
     3.160168886         7.034910272        18.613741720
     3.160168886         7.646530719        31.199708939
     3.160168886        19.635725091        18.613741720
     9.480506659         0.794509890        12.851173243
     9.480506659         1.406103176        25.437088016
     9.480506659        13.395325037        12.851173243
     9.480506659        14.006917338        25.437088016
     9.480506659         6.789094288         6.558190404
     9.480506659         7.400714708        19.144156852
     9.480506659         8.012307760        31.730071626
     9.480506659        20.001530278        19.144156852
     9.480506659         0.579559687         6.462800719
     9.480506659         1.191154792        19.048766781
     9.480506659         1.802749836        31.634732457
     9.480506659        13.791970175        19.048766781
     9.480506659         7.185764961        12.755783943
     9.480506659         7.797359845        25.341750390
     9.480506659        19.786579781        12.755783943
     9.480506659        20.398173913        25.341750390
     3.160168886        12.632875491         6.123165343
     3.160168886        13.244470375        18.709131791
     3.160168886        13.856065983        31.295097467
     3.160168886        25.845285195        18.709131791
     3.160168886         6.638265510        12.416148181
     3.160168886         7.249860742        25.002113858
     3.160168886        19.239079954        12.416148181
     3.160168886        19.850675561        25.002113858
     0.000000000        10.215103957        15.732431259
     0.000000000        10.826724404        28.318398478
     0.000000000        22.815918776        15.732431259
     0.000000000        23.427538472        28.318398478
     0.000000000         3.608899119         9.439448420
     0.000000000         4.220519539        22.025414868
     0.000000000        16.209713563         9.439448420
     0.000000000        16.821334734        22.025414868
     0.000000000         3.914696547        15.732431259
     0.000000000         4.526316995        28.318398478
     0.000000000        16.515511367        15.732431259
     0.000000000        17.127131063        28.318398478
     0.000000000         9.909306153         9.439448420
     0.000000000        10.520926573        22.025414868
     0.000000000        22.510120972         9.439448420
     0.000000000        23.121742144        22.025414868
     6.320337772        10.215103957        15.732431259
     6.320337772        10.826724404        28.318398478
     6.320337772        22.815918776        15.732431259
     6.320337772        23.427538472        28.318398478
     6.320337772         3.608899119         9.439448420
     6.320337772         4.220519539        22.025414868
     6.320337772        16.209713563         9.439448420
     6.320337772        16.821334734        22.025414868
     6.320337772         3.914696547        15.732431259
     6.320337772         4.526316995        28.318398478
     6.320337772        16.515511367        15.732431259
     6.320337772        17.127131063        28.318398478
     6.320337772         9.909306153         9.439448420
     6.320337772        10.520926573        22.025414868
     6.320337772        22.510120972         9.439448420
     6.320337772        23.121742144        22.025414868
     3.160168886         3.653279041        16.101361510
     3.160168886         4.264899300        28.687328729
     3.160168886        16.254094423        16.101361510
     3.160168886        16.865714120        28.687328729
     3.160168886         9.647889210         9.808378671
     3.160168886        10.259508879        22.394345119
     3.160168886        22.248704029         9.808378671
     3.160168886        22.860323698        22.394345119
     9.480506659        10.170725679         9.070569843
     9.480506659        10.782346072        21.656535520
     9.480506659        22.771541250         9.070569843
     9.480506659        23.383160891        21.656535520
     9.480506659         4.176141261        15.363553453
     9.480506659         4.787736548        27.949520672
     9.480506659        16.776955705        15.363553453
     9.480506659        17.388551367        27.949520672
     9.480506659         3.253140160         9.718475292
     9.480506659         3.864735231        22.304441739
     9.480506659        15.853955543         9.718475292
     9.480506659        16.465549675        22.304441739
     9.480506659         9.859345186        16.011458130
     9.480506659        10.470940097        28.597425349
     9.480506659        22.460159254        16.011458130
     9.480506659        23.071754916        28.597425349
     3.160168886        10.570890124        15.453456833
     3.160168886        11.182485035        28.039424051
     3.160168886        23.171704192        15.453456833
     3.160168886        23.783299854        28.039424051
     3.160168886         3.964685286         9.160473994
     3.160168886         4.576280115        21.746438899
     3.160168886        16.565500481         9.160473994
     3.160168886        17.177094559        21.746438899
     0.327709504         9.172534382         6.296450776
     0.327709504         9.784129252        18.882416838
     0.327709504        10.395749645        31.468382514
     0.327709504        22.384944072        18.882416838
     0.327709504         3.177924414        12.589434000
     0.327709504         3.789544647        25.175400447
     0.327709504        15.778738858        12.589434000
     0.327709504        16.390360029        25.175400447
    12.312966276         4.039875683         6.289515286
    12.312966276         4.651496103        18.875481734
    12.312966276         5.263090959        31.461447410
    12.312966276        17.252311298        18.875481734
    12.312966276        10.646106057        12.582498124
    12.312966276        11.257700913        25.168463801
    12.312966276        23.246920876        12.582498124
    12.312966276        23.858514982        25.168463801
    12.312966276        13.390222360        16.315794428
    12.312966276        14.001816520        28.901761647
    12.312966276         0.789407541        16.315794428
    12.312966276         1.401003203        28.901761647
    12.312966276         6.784017147        10.022811590
    12.312966276         7.395612031        22.608778038
    12.312966276        19.384831966        10.022811590
    12.312966276        19.996426099        22.608778038
     0.327709504         0.433808365         8.856136925
     0.327709504         1.045401628        21.442051698
     0.327709504        13.034622527         8.856136925
     0.327709504        13.646216330        21.442051698
     0.327709504         7.040011841        15.149068089
     0.327709504         7.651631537        27.735035308
     0.327709504        19.640825909        15.149068089
     0.327709504        20.252447107        27.735035308
     6.648047041         4.039875683         6.289515286
     6.648047041         4.651496103        18.875481734
     6.648047041         5.263090959        31.461447410
     6.648047041        17.252311298        18.875481734
     6.648047041        10.646106057        12.582498124
     6.648047041        11.257700913        25.168463801
     6.648047041        23.246920876        12.582498124
     6.648047041        23.858514982        25.168463801
     5.992628127         9.172534382         6.296450776
     5.992628127         9.784129252        18.882416838
     5.992628127        10.395749645        31.468382514
     5.992628127        22.384944072        18.882416838
     5.992628127         3.177924414        12.589434000
     5.992628127         3.789544647        25.175400447
     5.992628127        15.778738858        12.589434000
     5.992628127        16.390360029        25.175400447
     5.992628127         0.433808365         8.856136925
     5.992628127         1.045401628        21.442051698
     5.992628127        13.034622527         8.856136925
     5.992628127        13.646216330        21.442051698
     5.992628127         7.040011841        15.149068089
     5.992628127         7.651631537        27.735035308
     5.992628127        19.640825909        15.149068089
     5.992628127        20.252447107        27.735035308
     6.648047041        13.390222360        16.315794428
     6.648047041        14.001816520        28.901761647
     6.648047041         0.789407541        16.315794428
     6.648047041         1.401003203        28.901761647
     6.648047041         6.784017147        10.022811590
     6.648047041         7.395612031        22.608778038
     6.648047041        19.384831966        10.022811590
     6.648047041        19.996426099        22.608778038
