This file is generated by VASPKIT code  
   1.00000000000000     
    12.6406764983999995    0.0000000000000000    0.0000000000000000
     0.0000000000000000   18.2475891113000017    0.0000000000000000
     0.0000000000000000    0.0000000000000000   50.0000000000000000
   Cs   Pb   I 
    28    20    68
Direct
  0.2500000000316405  0.4615710741841175  0.6829685319151080
  0.2500000000316405  0.9615710443911463  0.6829685319151080
  0.2500000000316405  0.4718180244351771  0.3439276811819141
  0.2500000000316405  0.9718179946422058  0.3439276811819141
  0.2500000000316405  0.4658100345341180  0.5196188211995348
  0.2500000000316405  0.9658100047411460  0.5196188211995348
  0.7500000000158238  0.0341899412626861  0.5233248352404672
  0.7500000000158238  0.5341899356372841  0.5233248352404672
  0.7500000000158238  0.0281819513616269  0.6990159752580878
  0.7500000000158238  0.5281819457362243  0.6990159752580878
  0.7500000000158238  0.0384289016126865  0.3599750649248961
  0.7500000000158238  0.5384288959872838  0.3599750649248961
  0.7500000000158238  0.2820285508406986  0.6049444259407779
  0.7500000000158238  0.7820285508598762  0.6049444259407779
  0.7500000000158238  0.2298696213519265  0.2767646764101713
  0.7500000000158238  0.2864935319949534  0.7622698907687173
  0.7500000000158238  0.7298696213711042  0.2767646764101713
  0.7500000000158238  0.7864935320141313  0.7622698907687173
  0.7500000000158238  0.2840105813257526  0.4300375035410606
  0.7500000000158238  0.7840105813449298  0.4300375035410606
  0.2500000000316405  0.2159894186386281  0.6129061528989415
  0.2500000000316405  0.7159894186578057  0.6129061528989415
  0.2500000000316405  0.2135064679694271  0.2806737656712778
  0.2500000000316405  0.2701303786124539  0.7661789800298235
  0.2500000000316405  0.7135064679886043  0.2806737656712778
  0.2500000000316405  0.7701303786316314  0.7661789800298235
  0.2500000000316405  0.2179714491236819  0.4379992305192184
  0.2500000000316405  0.7179714491428594  0.4379992305192184
 -0.0034863457028262 -0.0019783964349843  0.6087472101983884
 -0.0034863457028262  0.4980216035841933  0.6087472101983884
  0.0034863457028262  0.0019783964349843  0.4341964164416151
  0.0034863457028262  0.5019783964541618  0.4341964164416151
 -0.0000000000000000  0.2500000000095923  0.5214717984200021
 -0.0000000000000000  0.7499999999739657  0.5214717984200021
 -0.0007396511596470  0.2493188982996721  0.6985072472136745
 -0.0007396511596470  0.7493188982640456  0.6985072472136745
  0.0007396511596470  0.2506811017195125  0.3444364688263250
  0.0007396511596470  0.7506811016838858  0.3444364688263250
  0.5034863456870021 -0.0019783964349843  0.6087472101983884
  0.5034863456870021  0.4980216035841933  0.6087472101983884
  0.4965136542813500  0.0019783964349843  0.4341964164416151
  0.4965136542813500  0.5019783964541618  0.4341964164416151
  0.4999999999841762  0.2500000000095923  0.5214717984200021
  0.4999999999841762  0.7499999999739657  0.5214717984200021
  0.5007396511438231  0.2493188982996721  0.6985072472136745
  0.5007396511438231  0.7493188982640456  0.6985072472136745
  0.4992603488245293  0.2506811017195125  0.3444364688263250
  0.4992603488245293  0.7506811016838858  0.3444364688263250
  0.2500000000316405  0.2562299682982653  0.5360248757730235
  0.2500000000316405  0.7562299682626459  0.5360248757730235
  0.2500000000316405  0.2414321290155540  0.6940653970508834
  0.2500000000316405  0.7414321289799340  0.6940653970508834
  0.2500000000316405  0.2509691658030890  0.3562968974742020
  0.2500000000316405  0.7509691657674695  0.3562968974742020
  0.7500000000158238  0.2490308342160886  0.6866467589657932
  0.7500000000158238  0.7490308342352732  0.6866467589657932
  0.7500000000158238  0.2585678710036236  0.3488782891891178
  0.7500000000158238  0.7585678710228086  0.3488782891891178
  0.7500000000158238  0.2437700317209122  0.5069187806869804
  0.7500000000158238  0.7437700317400968  0.5069187806869804
  0.7500000000158238  0.4912153700832952  0.6229445321945731
  0.7500000000158238  0.9912154296719883  0.6229445321945731
  0.7500000000158238  0.4960696204888544  0.4443264087641708
  0.7500000000158238  0.9960696800775475  0.4443264087641708
  0.2500000000316405  0.0039303827636267  0.5986172476958329
  0.2500000000316405  0.5039303794947038  0.5986172476958329
  0.2500000000316405  0.0087846331691857  0.4199991540454207
  0.2500000000316405  0.5087846299002629  0.4199991540454207
  0.0195303048089265  0.0941942027257083  0.6628301858146325
  0.0195303048089265  0.5941942325570424  0.6628301858146325
 -0.0028075310329670  0.1090195940992450  0.3072105177526883
 -0.0028075310329670  0.6090196239305788  0.3072105177526883
  0.0410639872144368  0.1007200327431704  0.4875249646893097
  0.0410639872144368  0.6007200625745046  0.4875249646893097
  0.9589359717751037  0.3992799672212103  0.5554186917506856
  0.9589359717751037  0.8992799374282310  0.5554186917506856
  0.0028074900225081  0.3909804058651354  0.7357330790873164
  0.0028074900225081  0.8909803760721567  0.7357330790873164
  0.9804696541806144  0.4058057972386723  0.3801135004453703
  0.9804696541806144  0.9058057674456932  0.3801135004453703
  0.9612598552721030  0.1484378720325401  0.5739773592842556
  0.9612598552721030  0.6484378422395682  0.5739773592842556
  0.9849072881715801  0.1561881538869567  0.7521599970033176
  0.9849072881715801  0.6561881240939850  0.7521599970033176
  0.9741177566595219  0.1514792235602791  0.4005565233828861
  0.9741177566595219  0.6514791937673073  0.4005565233828861
  0.0258822023300189  0.3485207764040942  0.6423871032571172
  0.0258822023300189  0.8485208062354354  0.6423871032571172
  0.0150926708179610  0.3438118460774167  0.2907836892566779
  0.0150926708179610  0.8438118759087577  0.2907836892566779
  0.0387401037174379  0.3515621279318334  0.4689662971557466
  0.0387401037174379  0.8515621577631745  0.4689662971557466
  0.5410639686078383  0.3992799672212103  0.5554186917506856
  0.5410639686078383  0.8992799374282310  0.5554186917506856
  0.4971924503604341  0.3909804058651354  0.7357330790873164
  0.4971924503604341  0.8909803760721567  0.7357330790873164
  0.5195302862023277  0.4058057972386723  0.3801135004453703
  0.5195302862023277  0.9058057674456932  0.3801135004453703
  0.4804697138451369  0.0941942027257083  0.6628301858146325
  0.4804697138451369  0.5941942325570424  0.6628301858146325
  0.5028075496870302  0.1090195940992450  0.3072105177526883
  0.5028075496870302  0.6090196239305788  0.3072105177526883
  0.4589360314396265  0.1007200327431704  0.4875249646893097
  0.4589360314396265  0.6007200625745046  0.4875249646893097
  0.4741178163240442  0.3485207764040942  0.6423871032571172
  0.4741178163240442  0.8485208062354354  0.6423871032571172
  0.4849073478361022  0.3438118460774167  0.2907836892566779
  0.4849073478361022  0.8438118759087577  0.2907836892566779
  0.4612599149366252  0.3515621279318334  0.4689662971557466
  0.4612599149366252  0.8515621577631745  0.4689662971557466
  0.5387400851108390  0.1484378720325401  0.5739773592842556
  0.5387400851108390  0.6484378422395682  0.5739773592842556
  0.5150926522113619  0.1561881538869567  0.7521599970033176
  0.5150926522113619  0.6561881240939850  0.7521599970033176
  0.5258821837234201  0.1514792235602791  0.4005565233828861
  0.5258821837234201  0.6514791937673073  0.4005565233828861
 
  0.00000000E+00  0.00000000E+00  0.00000000E+00
  0.00000000E+00  0.00000000E+00  0.00000000E+00
  0.00000000E+00  0.00000000E+00  0.00000000E+00
  0.00000000E+00  0.00000000E+00  0.00000000E+00
  0.00000000E+00  0.00000000E+00  0.00000000E+00
  0.00000000E+00  0.00000000E+00  0.00000000E+00
  0.00000000E+00  0.00000000E+00  0.00000000E+00
  0.00000000E+00  0.00000000E+00  0.00000000E+00
  0.00000000E+00  0.00000000E+00  0.00000000E+00
  0.00000000E+00  0.00000000E+00  0.00000000E+00
  0.00000000E+00  0.00000000E+00  0.00000000E+00
  0.00000000E+00  0.00000000E+00  0.00000000E+00
  0.00000000E+00  0.00000000E+00  0.00000000E+00
  0.00000000E+00  0.00000000E+00  0.00000000E+00
  0.00000000E+00  0.00000000E+00  0.00000000E+00
  0.00000000E+00  0.00000000E+00  0.00000000E+00
  0.00000000E+00  0.00000000E+00  0.00000000E+00
  0.00000000E+00  0.00000000E+00  0.00000000E+00
  0.00000000E+00  0.00000000E+00  0.00000000E+00
  0.00000000E+00  0.00000000E+00  0.00000000E+00
  0.00000000E+00  0.00000000E+00  0.00000000E+00
  0.00000000E+00  0.00000000E+00  0.00000000E+00
  0.00000000E+00  0.00000000E+00  0.00000000E+00
  0.00000000E+00  0.00000000E+00  0.00000000E+00
  0.00000000E+00  0.00000000E+00  0.00000000E+00
  0.00000000E+00  0.00000000E+00  0.00000000E+00
  0.00000000E+00  0.00000000E+00  0.00000000E+00
  0.00000000E+00  0.00000000E+00  0.00000000E+00
  0.00000000E+00  0.00000000E+00  0.00000000E+00
  0.00000000E+00  0.00000000E+00  0.00000000E+00
  0.00000000E+00  0.00000000E+00  0.00000000E+00
  0.00000000E+00  0.00000000E+00  0.00000000E+00
  0.00000000E+00  0.00000000E+00  0.00000000E+00
  0.00000000E+00  0.00000000E+00  0.00000000E+00
  0.00000000E+00  0.00000000E+00  0.00000000E+00
  0.00000000E+00  0.00000000E+00  0.00000000E+00
  0.00000000E+00  0.00000000E+00  0.00000000E+00
  0.00000000E+00  0.00000000E+00  0.00000000E+00
  0.00000000E+00  0.00000000E+00  0.00000000E+00
  0.00000000E+00  0.00000000E+00  0.00000000E+00
  0.00000000E+00  0.00000000E+00  0.00000000E+00
  0.00000000E+00  0.00000000E+00  0.00000000E+00
  0.00000000E+00  0.00000000E+00  0.00000000E+00
  0.00000000E+00  0.00000000E+00  0.00000000E+00
  0.00000000E+00  0.00000000E+00  0.00000000E+00
  0.00000000E+00  0.00000000E+00  0.00000000E+00
  0.00000000E+00  0.00000000E+00  0.00000000E+00
  0.00000000E+00  0.00000000E+00  0.00000000E+00
  0.00000000E+00  0.00000000E+00  0.00000000E+00
  0.00000000E+00  0.00000000E+00  0.00000000E+00
  0.00000000E+00  0.00000000E+00  0.00000000E+00
  0.00000000E+00  0.00000000E+00  0.00000000E+00
  0.00000000E+00  0.00000000E+00  0.00000000E+00
  0.00000000E+00  0.00000000E+00  0.00000000E+00
  0.00000000E+00  0.00000000E+00  0.00000000E+00
  0.00000000E+00  0.00000000E+00  0.00000000E+00
  0.00000000E+00  0.00000000E+00  0.00000000E+00
  0.00000000E+00  0.00000000E+00  0.00000000E+00
  0.00000000E+00  0.00000000E+00  0.00000000E+00
  0.00000000E+00  0.00000000E+00  0.00000000E+00
  0.00000000E+00  0.00000000E+00  0.00000000E+00
  0.00000000E+00  0.00000000E+00  0.00000000E+00
  0.00000000E+00  0.00000000E+00  0.00000000E+00
  0.00000000E+00  0.00000000E+00  0.00000000E+00
  0.00000000E+00  0.00000000E+00  0.00000000E+00
  0.00000000E+00  0.00000000E+00  0.00000000E+00
  0.00000000E+00  0.00000000E+00  0.00000000E+00
  0.00000000E+00  0.00000000E+00  0.00000000E+00
  0.00000000E+00  0.00000000E+00  0.00000000E+00
  0.00000000E+00  0.00000000E+00  0.00000000E+00
  0.00000000E+00  0.00000000E+00  0.00000000E+00
  0.00000000E+00  0.00000000E+00  0.00000000E+00
  0.00000000E+00  0.00000000E+00  0.00000000E+00
  0.00000000E+00  0.00000000E+00  0.00000000E+00
  0.00000000E+00  0.00000000E+00  0.00000000E+00
  0.00000000E+00  0.00000000E+00  0.00000000E+00
  0.00000000E+00  0.00000000E+00  0.00000000E+00
  0.00000000E+00  0.00000000E+00  0.00000000E+00
  0.00000000E+00  0.00000000E+00  0.00000000E+00
  0.00000000E+00  0.00000000E+00  0.00000000E+00
  0.00000000E+00  0.00000000E+00  0.00000000E+00
  0.00000000E+00  0.00000000E+00  0.00000000E+00
  0.00000000E+00  0.00000000E+00  0.00000000E+00
  0.00000000E+00  0.00000000E+00  0.00000000E+00
  0.00000000E+00  0.00000000E+00  0.00000000E+00
  0.00000000E+00  0.00000000E+00  0.00000000E+00
  0.00000000E+00  0.00000000E+00  0.00000000E+00
  0.00000000E+00  0.00000000E+00  0.00000000E+00
  0.00000000E+00  0.00000000E+00  0.00000000E+00
  0.00000000E+00  0.00000000E+00  0.00000000E+00
  0.00000000E+00  0.00000000E+00  0.00000000E+00
  0.00000000E+00  0.00000000E+00  0.00000000E+00
  0.00000000E+00  0.00000000E+00  0.00000000E+00
  0.00000000E+00  0.00000000E+00  0.00000000E+00
  0.00000000E+00  0.00000000E+00  0.00000000E+00
  0.00000000E+00  0.00000000E+00  0.00000000E+00
  0.00000000E+00  0.00000000E+00  0.00000000E+00
  0.00000000E+00  0.00000000E+00  0.00000000E+00
  0.00000000E+00  0.00000000E+00  0.00000000E+00
  0.00000000E+00  0.00000000E+00  0.00000000E+00
  0.00000000E+00  0.00000000E+00  0.00000000E+00
  0.00000000E+00  0.00000000E+00  0.00000000E+00
  0.00000000E+00  0.00000000E+00  0.00000000E+00
  0.00000000E+00  0.00000000E+00  0.00000000E+00
  0.00000000E+00  0.00000000E+00  0.00000000E+00
  0.00000000E+00  0.00000000E+00  0.00000000E+00
  0.00000000E+00  0.00000000E+00  0.00000000E+00
  0.00000000E+00  0.00000000E+00  0.00000000E+00
  0.00000000E+00  0.00000000E+00  0.00000000E+00
  0.00000000E+00  0.00000000E+00  0.00000000E+00
  0.00000000E+00  0.00000000E+00  0.00000000E+00
  0.00000000E+00  0.00000000E+00  0.00000000E+00
  0.00000000E+00  0.00000000E+00  0.00000000E+00
  0.00000000E+00  0.00000000E+00  0.00000000E+00
  0.00000000E+00  0.00000000E+00  0.00000000E+00
  0.00000000E+00  0.00000000E+00  0.00000000E+00
