This file is generated by VASPKIT code  
   1.00000000000000     
    17.3823947905999994    0.0000000000000000    0.0000000000000000
     0.0000000000000000   18.2475891113000017    0.0000000000000000
     0.0000000000000000    0.0000000000000000   40.0000000000000000
   Cs   Pb   I 
    24    24    72
Direct
  0.4495784730344201  0.4716910619014861  0.3872622883006330
  0.4495784730344201  0.4716910619014861  0.7187969052993635
  0.4495784730344201  0.9716910619206708  0.3872622883006330
  0.4495784730344201  0.9716910619206708  0.7187969052993635
  0.0029378718087697  0.4598373133936478  0.4003716113486959
  0.0029378718087697  0.4598373133936478  0.7056875822513006
  0.0029378718087697  0.9598373134128322  0.4003716113486959
  0.0029378718087697  0.9598373134128322  0.7056875822513006
  0.0278662238485101  0.0270236309865881  0.5530295968000019
  0.0278662238485101  0.5270236272244486  0.5530295968000019
  0.4908998849685272  0.0329068768683210  0.5530295968000019
  0.4908998849685272  0.5329068731061821  0.5530295968000019
  0.2221337834203349  0.2770236272148567  0.5530295968000019
  0.2221337834203349  0.7770236272340338  0.5530295968000019
  0.7591001150170913  0.2829068730965899  0.5530295968000019
  0.7591001150170913  0.7829068731157673  0.5530295968000019
  0.2470621282343745  0.2098373133840625  0.4003716113486959
  0.2470621282343745  0.2098373133840625  0.7056875822513006
  0.2470621282343745  0.7098373134032399  0.4003716113486959
  0.2470621282343745  0.7098373134032399  0.7056875822513006
  0.8004215269511920  0.2216910618919007  0.3872622883006330
  0.8004215269511920  0.2216910618919007  0.7187969052993635
  0.8004215269511920  0.7216910619110785  0.3872622883006330
  0.8004215269511920  0.7216910619110785  0.7187969052993635
  0.2524368912470407 -0.0067424212689174  0.6357371554860246
  0.2524368912470407  0.4932575787502599  0.6357371554860246
  0.6918979288146270 -0.0178106389965863  0.3283851618037645
  0.7431383394883340 -0.0013946039610309  0.6291477308585305
  0.6918979288146270  0.4821893610225914  0.3283851618037645
  0.7431383394883340  0.4986053960581468  0.6291477308585305
 -0.0024368912269040  0.2432575787406750  0.6357371554860246
 -0.0024368912269040  0.7432575787050484  0.6357371554860246
  0.5581020711709916  0.2321893610130061  0.3283851618037645
  0.5068616604972845  0.2486053960485614  0.6291477308585305
  0.5581020711709916  0.7321893609773790  0.3283851618037645
  0.5068616604972845  0.7486053960129352  0.6291477308585305
  0.2524368912470407 -0.0067424212689174  0.4703220083389769
  0.2524368912470407  0.4932575787502599  0.4703220083389769
  0.7431383394883340 -0.0013946039610309  0.4769114329664708
  0.6918979288146270 -0.0178106389965863  0.7776740317962403
  0.7431383394883340  0.4986053960581468  0.4769114329664708
  0.6918979288146270  0.4821893610225914  0.7776740317962403
 -0.0024368912269040  0.2432575787406750  0.4703220083389769
 -0.0024368912269040  0.7432575787050484  0.4703220083389769
  0.5068616604972845  0.2486053960485614  0.4769114329664708
  0.5581020711709916  0.2321893610130061  0.7776740317962403
  0.5068616604972845  0.7486053960129352  0.4769114329664708
  0.5581020711709916  0.7321893609773790  0.7776740317962403
  0.0263003011400046  0.2464501569537753  0.3925930766428845
  0.0263003011400046  0.2464501569537753  0.7134661169571120
  0.0263003011400046  0.7464501569181566  0.3925930766428845
  0.0263003011400046  0.7464501569181566  0.7134661169571120
  0.5821431312003820  0.2843949147341852  0.4007262516255604
  0.5821431312003820  0.2843949147341852  0.7053329419744367
  0.5821431312003820  0.7843949146985659  0.4007262516255604
  0.5821431312003820  0.7843949146985659  0.7053329419744367
  0.4461998346450901  0.2445439942360094  0.5530295968000019
  0.4461998346450901  0.7445439942551940  0.5530295968000019
  0.9771698498544169  0.2368836772726798  0.5530295968000019
  0.9771698498544169  0.7368836772918649  0.5530295968000019
  0.2728301501887275  0.4868836772822721  0.5530295968000019
  0.2728301501887275  0.9868836772466530  0.5530295968000019
  0.8038001653405217  0.4945439942456012  0.5530295968000019
  0.8038001653405217 -0.0054560057900178  0.5530295968000019
  0.2236996932997712 -0.0035498400417160  0.3925930766428845
  0.2236996932997712 -0.0035498400417160  0.7134661169571120
  0.2236996932997712  0.4964501569085639  0.3925930766428845
  0.2236996932997712  0.4964501569085639  0.7134661169571120
  0.6678568687852366  0.0343949177386937  0.4007262516255604
  0.6678568687852366  0.0343949177386937  0.7053329419744367
  0.6678568687852366  0.5343949146889736  0.4007262516255604
  0.6678568687852366  0.5343949146889736  0.7053329419744367
  0.4051833996382448  0.1558153725156316  0.3343894351915955
  0.4019215348660656  0.1023567736735694  0.6449119789963677
  0.4051833996382448  0.6558153427226524  0.3343894351915955
  0.4019215348660656  0.6023567438805906  0.6449119789963677
  0.8939725194252045  0.0969432087653445  0.6482540077069140
  0.8939725194252045  0.5969431789723658  0.6482540077069140
  0.1023977270030367  0.3899660044422953  0.6230452982512932
  0.1023977270030367  0.8899660342736370  0.6230452982512932
  0.5311617665381777  0.3905000741163948  0.3026826112912459
  0.6018207898619518  0.3936031989140013  0.6097527099692451
  0.5311617665381777  0.8905001039477359  0.3026826112912459
  0.6018207898619518  0.8936032287453411  0.6097527099692451
  0.1476022729595674  0.1399660044327032  0.6230452982512932
  0.1476022729595674  0.6399660342640446  0.6230452982512932
  0.7188382335049665  0.1405000741068029  0.3026826112912459
  0.6481792101811924  0.1436031989044087  0.6097527099692451
  0.7188382335049665  0.6405001039381436  0.3026826112912459
  0.6481792101811924  0.6436032287357488  0.6097527099692451
  0.3560274507601452  0.3469432087749298  0.6482540077069140
  0.3560274507601452  0.8469431789819581  0.6482540077069140
  0.8448166301476426  0.4058153725252170  0.3343894351915955
  0.8480784949198215  0.3523567736831547  0.6449119789963677
  0.8448166301476426  0.9058153427322447  0.3343894351915955
  0.8480784949198215  0.8523567438901829  0.6449119789963677
  0.1023977270030367  0.3899660044422953  0.4830138357487059
  0.1023977270030367  0.8899660342736370  0.4830138357487059
  0.6018207898619518  0.3936031989140013  0.4963064240307540
  0.5311617665381777  0.3905000741163948  0.8033765525087594
  0.6018207898619518  0.8936032287453411  0.4963064240307540
  0.5311617665381777  0.8905001039477359  0.8033765525087594
  0.4019215348660656  0.1023567736735694  0.4611471848036369
  0.4051833996382448  0.1558153725156316  0.7716696988334081
  0.4019215348660656  0.6023567438805906  0.4611471848036369
  0.4051833996382448  0.6558153427226524  0.7716696988334081
  0.8939725194252045  0.0969432087653445  0.4578051560930906
  0.8939725194252045  0.5969431789723658  0.4578051560930906
  0.3560274507601452  0.3469432087749298  0.4578051560930906
  0.3560274507601452  0.8469431789819581  0.4578051560930906
  0.8480784949198215  0.3523567736831547  0.4611471848036369
  0.8448166301476426  0.4058153725252170  0.7716696988334081
  0.8480784949198215  0.8523567438901829  0.4611471848036369
  0.8448166301476426  0.9058153427322447  0.7716696988334081
  0.1476022729595674  0.1399660044327032  0.4830138357487059
  0.1476022729595674  0.6399660342640446  0.4830138357487059
  0.6481792101811924  0.1436031989044087  0.4963064240307540
  0.7188382335049665  0.1405000741068029  0.8033765525087594
  0.6481792101811924  0.6436032287357488  0.4963064240307540
  0.7188382335049665  0.6405001039381436  0.8033765525087594
 
  0.00000000E+00  0.00000000E+00  0.00000000E+00
  0.00000000E+00  0.00000000E+00  0.00000000E+00
  0.00000000E+00  0.00000000E+00  0.00000000E+00
  0.00000000E+00  0.00000000E+00  0.00000000E+00
  0.00000000E+00  0.00000000E+00  0.00000000E+00
  0.00000000E+00  0.00000000E+00  0.00000000E+00
  0.00000000E+00  0.00000000E+00  0.00000000E+00
  0.00000000E+00  0.00000000E+00  0.00000000E+00
  0.00000000E+00  0.00000000E+00  0.00000000E+00
  0.00000000E+00  0.00000000E+00  0.00000000E+00
  0.00000000E+00  0.00000000E+00  0.00000000E+00
  0.00000000E+00  0.00000000E+00  0.00000000E+00
  0.00000000E+00  0.00000000E+00  0.00000000E+00
  0.00000000E+00  0.00000000E+00  0.00000000E+00
  0.00000000E+00  0.00000000E+00  0.00000000E+00
  0.00000000E+00  0.00000000E+00  0.00000000E+00
  0.00000000E+00  0.00000000E+00  0.00000000E+00
  0.00000000E+00  0.00000000E+00  0.00000000E+00
  0.00000000E+00  0.00000000E+00  0.00000000E+00
  0.00000000E+00  0.00000000E+00  0.00000000E+00
  0.00000000E+00  0.00000000E+00  0.00000000E+00
  0.00000000E+00  0.00000000E+00  0.00000000E+00
  0.00000000E+00  0.00000000E+00  0.00000000E+00
  0.00000000E+00  0.00000000E+00  0.00000000E+00
  0.00000000E+00  0.00000000E+00  0.00000000E+00
  0.00000000E+00  0.00000000E+00  0.00000000E+00
  0.00000000E+00  0.00000000E+00  0.00000000E+00
  0.00000000E+00  0.00000000E+00  0.00000000E+00
  0.00000000E+00  0.00000000E+00  0.00000000E+00
  0.00000000E+00  0.00000000E+00  0.00000000E+00
  0.00000000E+00  0.00000000E+00  0.00000000E+00
  0.00000000E+00  0.00000000E+00  0.00000000E+00
  0.00000000E+00  0.00000000E+00  0.00000000E+00
  0.00000000E+00  0.00000000E+00  0.00000000E+00
  0.00000000E+00  0.00000000E+00  0.00000000E+00
  0.00000000E+00  0.00000000E+00  0.00000000E+00
  0.00000000E+00  0.00000000E+00  0.00000000E+00
  0.00000000E+00  0.00000000E+00  0.00000000E+00
  0.00000000E+00  0.00000000E+00  0.00000000E+00
  0.00000000E+00  0.00000000E+00  0.00000000E+00
  0.00000000E+00  0.00000000E+00  0.00000000E+00
  0.00000000E+00  0.00000000E+00  0.00000000E+00
  0.00000000E+00  0.00000000E+00  0.00000000E+00
  0.00000000E+00  0.00000000E+00  0.00000000E+00
  0.00000000E+00  0.00000000E+00  0.00000000E+00
  0.00000000E+00  0.00000000E+00  0.00000000E+00
  0.00000000E+00  0.00000000E+00  0.00000000E+00
  0.00000000E+00  0.00000000E+00  0.00000000E+00
  0.00000000E+00  0.00000000E+00  0.00000000E+00
  0.00000000E+00  0.00000000E+00  0.00000000E+00
  0.00000000E+00  0.00000000E+00  0.00000000E+00
  0.00000000E+00  0.00000000E+00  0.00000000E+00
  0.00000000E+00  0.00000000E+00  0.00000000E+00
  0.00000000E+00  0.00000000E+00  0.00000000E+00
  0.00000000E+00  0.00000000E+00  0.00000000E+00
  0.00000000E+00  0.00000000E+00  0.00000000E+00
  0.00000000E+00  0.00000000E+00  0.00000000E+00
  0.00000000E+00  0.00000000E+00  0.00000000E+00
  0.00000000E+00  0.00000000E+00  0.00000000E+00
  0.00000000E+00  0.00000000E+00  0.00000000E+00
  0.00000000E+00  0.00000000E+00  0.00000000E+00
  0.00000000E+00  0.00000000E+00  0.00000000E+00
  0.00000000E+00  0.00000000E+00  0.00000000E+00
  0.00000000E+00  0.00000000E+00  0.00000000E+00
  0.00000000E+00  0.00000000E+00  0.00000000E+00
  0.00000000E+00  0.00000000E+00  0.00000000E+00
  0.00000000E+00  0.00000000E+00  0.00000000E+00
  0.00000000E+00  0.00000000E+00  0.00000000E+00
  0.00000000E+00  0.00000000E+00  0.00000000E+00
  0.00000000E+00  0.00000000E+00  0.00000000E+00
  0.00000000E+00  0.00000000E+00  0.00000000E+00
  0.00000000E+00  0.00000000E+00  0.00000000E+00
  0.00000000E+00  0.00000000E+00  0.00000000E+00
  0.00000000E+00  0.00000000E+00  0.00000000E+00
  0.00000000E+00  0.00000000E+00  0.00000000E+00
  0.00000000E+00  0.00000000E+00  0.00000000E+00
  0.00000000E+00  0.00000000E+00  0.00000000E+00
  0.00000000E+00  0.00000000E+00  0.00000000E+00
  0.00000000E+00  0.00000000E+00  0.00000000E+00
  0.00000000E+00  0.00000000E+00  0.00000000E+00
  0.00000000E+00  0.00000000E+00  0.00000000E+00
  0.00000000E+00  0.00000000E+00  0.00000000E+00
  0.00000000E+00  0.00000000E+00  0.00000000E+00
  0.00000000E+00  0.00000000E+00  0.00000000E+00
  0.00000000E+00  0.00000000E+00  0.00000000E+00
  0.00000000E+00  0.00000000E+00  0.00000000E+00
  0.00000000E+00  0.00000000E+00  0.00000000E+00
  0.00000000E+00  0.00000000E+00  0.00000000E+00
  0.00000000E+00  0.00000000E+00  0.00000000E+00
  0.00000000E+00  0.00000000E+00  0.00000000E+00
  0.00000000E+00  0.00000000E+00  0.00000000E+00
  0.00000000E+00  0.00000000E+00  0.00000000E+00
  0.00000000E+00  0.00000000E+00  0.00000000E+00
  0.00000000E+00  0.00000000E+00  0.00000000E+00
  0.00000000E+00  0.00000000E+00  0.00000000E+00
  0.00000000E+00  0.00000000E+00  0.00000000E+00
  0.00000000E+00  0.00000000E+00  0.00000000E+00
  0.00000000E+00  0.00000000E+00  0.00000000E+00
  0.00000000E+00  0.00000000E+00  0.00000000E+00
  0.00000000E+00  0.00000000E+00  0.00000000E+00
  0.00000000E+00  0.00000000E+00  0.00000000E+00
  0.00000000E+00  0.00000000E+00  0.00000000E+00
  0.00000000E+00  0.00000000E+00  0.00000000E+00
  0.00000000E+00  0.00000000E+00  0.00000000E+00
  0.00000000E+00  0.00000000E+00  0.00000000E+00
  0.00000000E+00  0.00000000E+00  0.00000000E+00
  0.00000000E+00  0.00000000E+00  0.00000000E+00
  0.00000000E+00  0.00000000E+00  0.00000000E+00
  0.00000000E+00  0.00000000E+00  0.00000000E+00
  0.00000000E+00  0.00000000E+00  0.00000000E+00
  0.00000000E+00  0.00000000E+00  0.00000000E+00
  0.00000000E+00  0.00000000E+00  0.00000000E+00
  0.00000000E+00  0.00000000E+00  0.00000000E+00
  0.00000000E+00  0.00000000E+00  0.00000000E+00
  0.00000000E+00  0.00000000E+00  0.00000000E+00
  0.00000000E+00  0.00000000E+00  0.00000000E+00
  0.00000000E+00  0.00000000E+00  0.00000000E+00
  0.00000000E+00  0.00000000E+00  0.00000000E+00
  0.00000000E+00  0.00000000E+00  0.00000000E+00
  0.00000000E+00  0.00000000E+00  0.00000000E+00
