This file is generated by VASPKIT code  
   1.00000000000000     
    17.3823947905999994    0.0000000000000000    0.0000000000000000
     0.0000000000000000   18.2475891113000017    0.0000000000000000
     0.0000000000000000    0.0000000000000000   40.0000000000000000
   Cs   Pb   I 
    34    32    98
Direct
  0.4828838946607265  0.4582260733943873  0.0871118733835006
  0.4923855241252125  0.4647410583380814  0.3950211405749968
  0.4828838946607265  0.4582260733943873  0.7029303481665020
  0.5094136947409282  0.9775777480684551  0.0912391104194516
  0.4952323910273575  0.9663489778349359  0.3950211405749968
  0.5094136947409282  0.9775777480684551  0.6988031111305518
  0.9894919706078813  0.4627208153981877  0.3950211405749968
  0.9778238170582003  0.9623328603980580  0.3950211405749968
  0.0030087412798094  0.0333645905693817  0.2381337093790707
  0.0030087412798094  0.0333645905693817  0.5519085568709338
  0.0123648395731665  0.5286044096679808  0.2354257651162629
  0.0123648395731665  0.5286044096679808  0.5546165011337415
  0.5240833648059809  0.0359508219377828  0.2354541592534879
  0.5240833648059809  0.0359508219377828  0.5545881069965167
  0.5076686062700733  0.5360070829788233  0.2381796353566006
  0.5076686062700732  0.5360070829788233  0.5518626308934038
  0.2503661952564658  0.2901026496848542  0.2365691546055225
  0.2503661952564658  0.2901026496848542  0.5534731116444822
  0.2414843075596292  0.7763122631802218  0.2352139876173026
  0.2414843075596292  0.7763122631802218  0.5548282786327020
  0.7223284698368756  0.2897709339086271  0.2350663863724953
  0.7223284698368756  0.2897709339086271  0.5549758798775094
  0.7313601157945092  0.7875479108626802  0.2381997094375959
  0.7313601157945092  0.7875479108626802  0.5518425568124087
  0.2713028529091885  0.2172452145094383  0.3950211405749968
  0.2851319268343041  0.7065701737848264  0.0871666914719982
  0.2668511265039988  0.7098034710891609  0.3950211405749968
  0.2851319268343041  0.7065701737848264  0.7028755300780050
  0.7444028080266966  0.2181198112224590  0.0866793912930069
  0.7567205812307323  0.2150310321308977  0.3950211405749968
  0.7444028080266966  0.2181198112224590  0.7033628302569963
  0.7323168717805602  0.7200434855910459  0.0892506446059943
  0.7583743905642988  0.7122592823274788  0.3950211405749968
  0.7323168717805602  0.7200434855910459  0.7007915769440088
  0.2471514750996464  0.0003917216086410  0.3179799809498801
  0.2454706225527328  0.0052827960068875  0.6227155938381104
  0.2509152088570443  0.5002921196746593  0.3148295812994592
  0.2502072956347128  0.4946031459675125  0.6387225528832364
  0.7522154988492761  0.0005329293767310  0.3147248211843973
  0.7621736573379764  0.0036202726208511  0.6396938300823716
  0.7520442525978223  0.4996947554732072  0.3147813577650755
  0.7483650918375803  0.5020344882782637  0.6379109518688829
  0.0023052262861519  0.2501668281505639  0.3172205021467667
 -0.0061064787022321  0.2531384933375699  0.6254540252195121
  0.0010945622418116  0.7488457041183648  0.3174505126268132
 -0.0064261934759935  0.7478897783666664  0.6273805731787431
  0.5004804040102735  0.2494019585788902  0.3151416298192484
  0.4980477039339278  0.2490230500737847  0.6374455933268994
  0.4991787602414478  0.7513245558985275  0.3158798185318623
  0.4997070450416546  0.7542454217480702  0.6340677530267321
  0.2454706225527328  0.0052827960068875  0.1673266873118904
  0.2471514750996464  0.0003917216086410  0.4720622704001217
  0.2502072956347128  0.4946031459675125  0.1513197282667647
  0.2509152088570443  0.5002921196746593  0.4752126700505426
  0.7621736573379764  0.0036202726208511  0.1503484510676289
  0.7522154988492761  0.0005329293767310  0.4753174301656046
  0.7483650918375803  0.5020344882782637  0.1521313292811182
  0.7520442525978223  0.4996947554732072  0.4752608935849263
 -0.0061064787022321  0.2531384933375699  0.1645882559304886
  0.0023052262861519  0.2501668281505639  0.4728217492032351
 -0.0064261934759935  0.7478897783666664  0.1626617079712576
  0.0010945622418116  0.7488457041183648  0.4725917387231887
  0.4980477039339278  0.2490230500737847  0.1525966878231015
  0.5004804040102735  0.2494019585788902  0.4749006215307535
  0.4997070450416546  0.7542454217480702  0.1559745281232687
  0.4991787602414478  0.7513245558985275  0.4741624328181396
  0.0463148427788976  0.2530479339810480  0.3950211405749968
  0.0444622866520750  0.7573592628836671  0.3950211405749968
  0.5281830095446460  0.2491743963089561  0.0760622348583782
  0.5340248824951171  0.2535186073006886  0.3950211405749968
  0.5281830095446460  0.2491743963089561  0.7139799866916249
  0.5123767374151185  0.7597605195158783  0.0766511740603761
  0.5372169323999708  0.7547711841266849  0.3950211405749968
  0.5123767374151185  0.7597605195158783  0.7133910474896270
  0.4731158309796650  0.2451375148558502  0.2367669359376622
  0.4731158309796650  0.2451375148558502  0.5532753303123429
  0.4648554098648534  0.7509742434548324  0.2371627488991107
  0.4648554098648534  0.7509742434548324  0.5528795173508941
  0.9444968253371294  0.2444789325767764  0.2375579972093285
  0.9444968253371294  0.2444789325767764  0.5524842690406766
  0.9524827712267557  0.7361555033862802  0.2367463923594152
  0.9524827712267557  0.7361555033862802  0.5532958738905898
  0.2815114347323701  0.5025276909107538  0.2366517893274274
  0.2815114347323701  0.5025276909107538  0.5533904769225778
  0.3008078697037748  0.9864881684153833  0.2388393923818753
  0.3008078697037748  0.9864881684153833  0.5512028738681296
  0.7876232589169883  0.4959507534283242  0.2364878293635529
  0.7876232589169883  0.4959507534283242  0.5535544368864518
  0.7832161593971341  0.9956246547882233  0.2358656928157680
  0.7832161593971341  0.9956246547882233  0.5541765734342367
  0.1993635239818413  0.0120692379139152  0.3950211405749968
  0.2555510052779796  0.5048734439765911  0.0742621640607397
  0.2127763342093154  0.5024037872050322  0.3950211405749968
  0.2555510052779796  0.5048734439765911  0.7157800574892632
  0.7223017852189254  0.0064531104025992  0.0748121716857934
  0.7196905100033396  0.0030004256962115  0.3950211405749968
  0.7223017852189254  0.0064531104025992  0.7152300498642097
  0.7029610422448129  0.5103432063123023  0.0775686823087943
  0.7155263778314906  0.5027313191819484  0.3950211405749968
  0.7029610422448129  0.5103432063123023  0.7124735392412088
  0.4006917733368217  0.0991573967959164  0.3284383253978301
  0.3968792412520543  0.1009570288841295  0.6408807047580117
  0.4025991793406747  0.6003170254823104  0.3282111887311850
  0.4040757022605982  0.5997755463473423  0.6384341929170603
  0.9043965999591836  0.1000949388830499  0.3280645992105107
  0.9073889323214523  0.1067410875616350  0.6532495838789896
  0.9040730977693229  0.6004352063401881  0.3292723910815409
  0.8991555625735815  0.6096996737787511  0.6526912568180301
  0.0987405504510872  0.3976245064690360  0.3026651048810856
  0.1014457219169135  0.3941566103029640  0.6191275979452269
  0.0983382585579611  0.8979595799260569  0.3017764733277096
  0.1022990031610263  0.8955646371869771  0.6153498391846015
  0.5983400228546305  0.4005201004532891  0.3043873699450659
  0.5978548219708930  0.4011273820700192  0.6217399983354960
  0.5980224629773487  0.9014170009196171  0.3047191029617615
  0.6089404781940451  0.8951398838787420  0.6223738253859438
  0.1526261444030368  0.1497494199252016  0.3004534538900027
  0.1433969334465195  0.1477756573404697  0.6109763818855213
  0.1509848425882696  0.6499643797195234  0.3030776129793474
  0.1506325576919278  0.6509743685935359  0.6276166109111718
  0.6548634762269693  0.1503027267575391  0.3045252097806720
  0.6503243528762710  0.1444059271499780  0.6228294290261729
  0.6510842421918039  0.6495095218717276  0.3042112377840694
  0.6469487987991773  0.6502128272067050  0.6185101178445650
  0.3498608191657503  0.3513568406630020  0.3268615120854702
  0.3439050454332162  0.3442715057710694  0.6436377362564139
  0.3470903767052252  0.8521236694232192  0.3302995228020526
  0.3485805218595540  0.8628925363809166  0.6467215637390925
  0.8504884416204556  0.3494559288724543  0.3293666785686408
  0.8480213070352467  0.3514743507042388  0.6455576980575842
  0.8476241388210094  0.8474963281648789  0.3276121422414577
  0.8564756725573445  0.8523155776245227  0.6500604067761251
  0.1014457219169135  0.3941566103029640  0.1709146384797752
  0.0987405504510872  0.3976245064690360  0.4873771464689162
  0.1022990031610263  0.8955646371869771  0.1746923972404005
  0.0983382585579611  0.8979595799260569  0.4882657780222922
  0.5978548219708930  0.4011273820700192  0.1683022380895059
  0.5983400228546305  0.4005201004532891  0.4856548814049359
  0.6089404781940451  0.8951398838787420  0.1676684110390584
  0.5980224629773487  0.9014170009196171  0.4853231483882403
  0.3968792412520543  0.1009570288841295  0.1491615465919900
  0.4006917733368217  0.0991573967959164  0.4616039259521717
  0.4040757022605982  0.5997755463473423  0.1516080584329414
  0.4025991793406747  0.6003170254823104  0.4618310626188168
  0.9073889323214523  0.1067410875616350  0.1367926674710126
  0.9043965999591836  0.1000949388830499  0.4619776521394911
  0.8991555625735815  0.6096996737787511  0.1373509945319716
  0.9040730977693229  0.6004352063401881  0.4607698602684610
  0.3439050454332162  0.3442715057710694  0.1464045150935879
  0.3498608191657503  0.3513568406630020  0.4631807392645316
  0.3485805218595540  0.8628925363809166  0.1433206876109092
  0.3470903767052252  0.8521236694232192  0.4597427285479492
  0.8480213070352467  0.3514743507042388  0.1444845532924176
  0.8504884416204556  0.3494559288724543  0.4606755727813610
  0.8564756725573445  0.8523155776245227  0.1399818445738769
  0.8476241388210094  0.8474963281648789  0.4624301091085441
  0.1433969334465195  0.1477756573404697  0.1790658545394807
  0.1526261444030368  0.1497494199252016  0.4895887974599991
  0.1506325576919278  0.6509743685935359  0.1624256255138301
  0.1509848425882696  0.6499643797195234  0.4869646383706544
  0.6503243528762710  0.1444059271499780  0.1672128073988290
  0.6548634762269693  0.1503027267575391  0.4855170415693298
  0.6469487987991773  0.6502128272067050  0.1715321185804373
  0.6510842421918039  0.6495095218717276  0.4858310135659324
 
  0.00000000E+00  0.00000000E+00  0.00000000E+00
  0.00000000E+00  0.00000000E+00  0.00000000E+00
  0.00000000E+00  0.00000000E+00  0.00000000E+00
  0.00000000E+00  0.00000000E+00  0.00000000E+00
  0.00000000E+00  0.00000000E+00  0.00000000E+00
  0.00000000E+00  0.00000000E+00  0.00000000E+00
  0.00000000E+00  0.00000000E+00  0.00000000E+00
  0.00000000E+00  0.00000000E+00  0.00000000E+00
  0.00000000E+00  0.00000000E+00  0.00000000E+00
  0.00000000E+00  0.00000000E+00  0.00000000E+00
  0.00000000E+00  0.00000000E+00  0.00000000E+00
  0.00000000E+00  0.00000000E+00  0.00000000E+00
  0.00000000E+00  0.00000000E+00  0.00000000E+00
  0.00000000E+00  0.00000000E+00  0.00000000E+00
  0.00000000E+00  0.00000000E+00  0.00000000E+00
  0.00000000E+00  0.00000000E+00  0.00000000E+00
  0.00000000E+00  0.00000000E+00  0.00000000E+00
  0.00000000E+00  0.00000000E+00  0.00000000E+00
  0.00000000E+00  0.00000000E+00  0.00000000E+00
  0.00000000E+00  0.00000000E+00  0.00000000E+00
  0.00000000E+00  0.00000000E+00  0.00000000E+00
  0.00000000E+00  0.00000000E+00  0.00000000E+00
  0.00000000E+00  0.00000000E+00  0.00000000E+00
  0.00000000E+00  0.00000000E+00  0.00000000E+00
  0.00000000E+00  0.00000000E+00  0.00000000E+00
  0.00000000E+00  0.00000000E+00  0.00000000E+00
  0.00000000E+00  0.00000000E+00  0.00000000E+00
  0.00000000E+00  0.00000000E+00  0.00000000E+00
  0.00000000E+00  0.00000000E+00  0.00000000E+00
  0.00000000E+00  0.00000000E+00  0.00000000E+00
  0.00000000E+00  0.00000000E+00  0.00000000E+00
  0.00000000E+00  0.00000000E+00  0.00000000E+00
  0.00000000E+00  0.00000000E+00  0.00000000E+00
  0.00000000E+00  0.00000000E+00  0.00000000E+00
  0.00000000E+00  0.00000000E+00  0.00000000E+00
  0.00000000E+00  0.00000000E+00  0.00000000E+00
  0.00000000E+00  0.00000000E+00  0.00000000E+00
  0.00000000E+00  0.00000000E+00  0.00000000E+00
  0.00000000E+00  0.00000000E+00  0.00000000E+00
  0.00000000E+00  0.00000000E+00  0.00000000E+00
  0.00000000E+00  0.00000000E+00  0.00000000E+00
  0.00000000E+00  0.00000000E+00  0.00000000E+00
  0.00000000E+00  0.00000000E+00  0.00000000E+00
  0.00000000E+00  0.00000000E+00  0.00000000E+00
  0.00000000E+00  0.00000000E+00  0.00000000E+00
  0.00000000E+00  0.00000000E+00  0.00000000E+00
  0.00000000E+00  0.00000000E+00  0.00000000E+00
  0.00000000E+00  0.00000000E+00  0.00000000E+00
  0.00000000E+00  0.00000000E+00  0.00000000E+00
  0.00000000E+00  0.00000000E+00  0.00000000E+00
  0.00000000E+00  0.00000000E+00  0.00000000E+00
  0.00000000E+00  0.00000000E+00  0.00000000E+00
  0.00000000E+00  0.00000000E+00  0.00000000E+00
  0.00000000E+00  0.00000000E+00  0.00000000E+00
  0.00000000E+00  0.00000000E+00  0.00000000E+00
  0.00000000E+00  0.00000000E+00  0.00000000E+00
  0.00000000E+00  0.00000000E+00  0.00000000E+00
  0.00000000E+00  0.00000000E+00  0.00000000E+00
  0.00000000E+00  0.00000000E+00  0.00000000E+00
  0.00000000E+00  0.00000000E+00  0.00000000E+00
  0.00000000E+00  0.00000000E+00  0.00000000E+00
  0.00000000E+00  0.00000000E+00  0.00000000E+00
  0.00000000E+00  0.00000000E+00  0.00000000E+00
  0.00000000E+00  0.00000000E+00  0.00000000E+00
  0.00000000E+00  0.00000000E+00  0.00000000E+00
  0.00000000E+00  0.00000000E+00  0.00000000E+00
  0.00000000E+00  0.00000000E+00  0.00000000E+00
  0.00000000E+00  0.00000000E+00  0.00000000E+00
  0.00000000E+00  0.00000000E+00  0.00000000E+00
  0.00000000E+00  0.00000000E+00  0.00000000E+00
  0.00000000E+00  0.00000000E+00  0.00000000E+00
  0.00000000E+00  0.00000000E+00  0.00000000E+00
  0.00000000E+00  0.00000000E+00  0.00000000E+00
  0.00000000E+00  0.00000000E+00  0.00000000E+00
  0.00000000E+00  0.00000000E+00  0.00000000E+00
  0.00000000E+00  0.00000000E+00  0.00000000E+00
  0.00000000E+00  0.00000000E+00  0.00000000E+00
  0.00000000E+00  0.00000000E+00  0.00000000E+00
  0.00000000E+00  0.00000000E+00  0.00000000E+00
  0.00000000E+00  0.00000000E+00  0.00000000E+00
  0.00000000E+00  0.00000000E+00  0.00000000E+00
  0.00000000E+00  0.00000000E+00  0.00000000E+00
  0.00000000E+00  0.00000000E+00  0.00000000E+00
  0.00000000E+00  0.00000000E+00  0.00000000E+00
  0.00000000E+00  0.00000000E+00  0.00000000E+00
  0.00000000E+00  0.00000000E+00  0.00000000E+00
  0.00000000E+00  0.00000000E+00  0.00000000E+00
  0.00000000E+00  0.00000000E+00  0.00000000E+00
  0.00000000E+00  0.00000000E+00  0.00000000E+00
  0.00000000E+00  0.00000000E+00  0.00000000E+00
  0.00000000E+00  0.00000000E+00  0.00000000E+00
  0.00000000E+00  0.00000000E+00  0.00000000E+00
  0.00000000E+00  0.00000000E+00  0.00000000E+00
  0.00000000E+00  0.00000000E+00  0.00000000E+00
  0.00000000E+00  0.00000000E+00  0.00000000E+00
  0.00000000E+00  0.00000000E+00  0.00000000E+00
  0.00000000E+00  0.00000000E+00  0.00000000E+00
  0.00000000E+00  0.00000000E+00  0.00000000E+00
  0.00000000E+00  0.00000000E+00  0.00000000E+00
  0.00000000E+00  0.00000000E+00  0.00000000E+00
  0.00000000E+00  0.00000000E+00  0.00000000E+00
  0.00000000E+00  0.00000000E+00  0.00000000E+00
  0.00000000E+00  0.00000000E+00  0.00000000E+00
  0.00000000E+00  0.00000000E+00  0.00000000E+00
  0.00000000E+00  0.00000000E+00  0.00000000E+00
  0.00000000E+00  0.00000000E+00  0.00000000E+00
  0.00000000E+00  0.00000000E+00  0.00000000E+00
  0.00000000E+00  0.00000000E+00  0.00000000E+00
  0.00000000E+00  0.00000000E+00  0.00000000E+00
  0.00000000E+00  0.00000000E+00  0.00000000E+00
  0.00000000E+00  0.00000000E+00  0.00000000E+00
  0.00000000E+00  0.00000000E+00  0.00000000E+00
  0.00000000E+00  0.00000000E+00  0.00000000E+00
  0.00000000E+00  0.00000000E+00  0.00000000E+00
  0.00000000E+00  0.00000000E+00  0.00000000E+00
  0.00000000E+00  0.00000000E+00  0.00000000E+00
  0.00000000E+00  0.00000000E+00  0.00000000E+00
  0.00000000E+00  0.00000000E+00  0.00000000E+00
  0.00000000E+00  0.00000000E+00  0.00000000E+00
  0.00000000E+00  0.00000000E+00  0.00000000E+00
  0.00000000E+00  0.00000000E+00  0.00000000E+00
  0.00000000E+00  0.00000000E+00  0.00000000E+00
  0.00000000E+00  0.00000000E+00  0.00000000E+00
  0.00000000E+00  0.00000000E+00  0.00000000E+00
  0.00000000E+00  0.00000000E+00  0.00000000E+00
  0.00000000E+00  0.00000000E+00  0.00000000E+00
  0.00000000E+00  0.00000000E+00  0.00000000E+00
  0.00000000E+00  0.00000000E+00  0.00000000E+00
  0.00000000E+00  0.00000000E+00  0.00000000E+00
  0.00000000E+00  0.00000000E+00  0.00000000E+00
  0.00000000E+00  0.00000000E+00  0.00000000E+00
  0.00000000E+00  0.00000000E+00  0.00000000E+00
  0.00000000E+00  0.00000000E+00  0.00000000E+00
  0.00000000E+00  0.00000000E+00  0.00000000E+00
  0.00000000E+00  0.00000000E+00  0.00000000E+00
  0.00000000E+00  0.00000000E+00  0.00000000E+00
  0.00000000E+00  0.00000000E+00  0.00000000E+00
  0.00000000E+00  0.00000000E+00  0.00000000E+00
  0.00000000E+00  0.00000000E+00  0.00000000E+00
  0.00000000E+00  0.00000000E+00  0.00000000E+00
  0.00000000E+00  0.00000000E+00  0.00000000E+00
  0.00000000E+00  0.00000000E+00  0.00000000E+00
  0.00000000E+00  0.00000000E+00  0.00000000E+00
  0.00000000E+00  0.00000000E+00  0.00000000E+00
  0.00000000E+00  0.00000000E+00  0.00000000E+00
  0.00000000E+00  0.00000000E+00  0.00000000E+00
  0.00000000E+00  0.00000000E+00  0.00000000E+00
  0.00000000E+00  0.00000000E+00  0.00000000E+00
  0.00000000E+00  0.00000000E+00  0.00000000E+00
  0.00000000E+00  0.00000000E+00  0.00000000E+00
  0.00000000E+00  0.00000000E+00  0.00000000E+00
  0.00000000E+00  0.00000000E+00  0.00000000E+00
  0.00000000E+00  0.00000000E+00  0.00000000E+00
  0.00000000E+00  0.00000000E+00  0.00000000E+00
  0.00000000E+00  0.00000000E+00  0.00000000E+00
  0.00000000E+00  0.00000000E+00  0.00000000E+00
  0.00000000E+00  0.00000000E+00  0.00000000E+00
  0.00000000E+00  0.00000000E+00  0.00000000E+00
  0.00000000E+00  0.00000000E+00  0.00000000E+00
  0.00000000E+00  0.00000000E+00  0.00000000E+00
  0.00000000E+00  0.00000000E+00  0.00000000E+00
  0.00000000E+00  0.00000000E+00  0.00000000E+00
  0.00000000E+00  0.00000000E+00  0.00000000E+00
  0.00000000E+00  0.00000000E+00  0.00000000E+00
