This file is generated by VASPKIT code  
   1.00000000000000     
    17.3823947905999994    0.0000000000000000    0.0000000000000000
     0.0000000000000000   18.2475891113000017    0.0000000000000000
     0.0000000000000000    0.0000000000000000   40.0000000000000000
   Cs   Pb   I 
    24    28    76
Direct
  0.4904074676777437  0.4645283984704782  0.3980747544208820
  0.4904074676777437  0.4645283984704782  0.7079844391791150
  0.4904074676777437  0.9645283686774996  0.3980747544208820
  0.4904074676777437  0.9645283686774996  0.7079844391791150
  0.9783440217356043  0.4546527686418965  0.4004715326347545
  0.9783440217356043  0.4546527686418965  0.7055876609652421
  0.9783440217356043  0.9546527388489178  0.4004715326347545
  0.9783440217356043  0.9546527388489178  0.7055876609652421
  0.0048853244229789  0.0328225894416273  0.5530295968000019
  0.0048853244229789  0.5328225856794884  0.5530295968000019
  0.5164100612861819  0.0378906244643439  0.5530295968000019
  0.5164100612861819  0.5378906207022047  0.5530295968000019
  0.2279130892416392  0.2839096296476059  0.5530295968000019
  0.2279130892416392  0.7839096296667837  0.5530295968000019
  0.7443935914619881  0.2839470521018395  0.5530295968000019
  0.7443935914619881  0.7839470521210168  0.5530295968000019
  0.2467835953349050  0.2171595641932511  0.4015336330480669
  0.2467835953349050  0.2171595641932511  0.7045255605519299
  0.2467835953349050  0.7171595791185069  0.4015336330480669
  0.2467835953349050  0.7171595791185069  0.7045255605519299
  0.7852501118775691  0.2270275966680586  0.3885025461016097
  0.7852501118775691  0.2270275966680586  0.7175566474983873
  0.7852501118775691  0.7270276115933144  0.3885025461016097
  0.7852501118775691  0.7270276115933144  0.7175566474983873
  0.2744232461521639 -0.0117101975968057  0.3236200954379165
  0.2494389529035216 -0.0010081100097749  0.6304816972084231
  0.2744232461521639  0.4882898024223719  0.3236200954379165
  0.2494389529035216  0.4989918900094026  0.6304816972084231
  0.7286278312946181 -0.0085411693051377  0.3164830199733955
  0.7456932416936712  0.0011017349398810  0.6315487124561615
  0.7286278312946181  0.4914588307140400  0.3164830199733955
  0.7456932416936712  0.5011017349590587  0.6315487124561615
 -0.0024953841767253  0.2472468782182776  0.6342655230588269
 -0.0024953841767253  0.7472468781826511  0.6342655230588269
  0.5273479308430915  0.2472592307254593  0.3207451256180823
  0.4995148291139115  0.2497622107035792  0.6303361667132615
  0.5273479308430914  0.7472592306898328  0.3207451256180823
  0.4995148291139115  0.7497622106679529  0.6303361667132615
  0.2494389529035216 -0.0010081100097749  0.4755774666165791
  0.2744232461521639 -0.0117101975968057  0.7824390981620870
  0.2494389529035216  0.4989918900094026  0.4755774666165791
  0.2744232461521639  0.4882898024223719  0.7824390981620870
  0.7456932416936712  0.0011017349398810  0.4745104513688399
  0.7286278312946181 -0.0085411693051377  0.7895761736266081
  0.7456932416936712  0.5011017349590587  0.4745104513688399
  0.7286278312946181  0.4914588307140400  0.7895761736266081
 -0.0024953841767253  0.2472468782182776  0.4717936407661746
 -0.0024953841767253  0.7472468781826511  0.4717936407661746
  0.4995148291139115  0.2497622107035792  0.4757229971117397
  0.5273479308430914  0.2472592307254593  0.7853140679819207
  0.4995148291139115  0.7497622106679529  0.4757229971117397
  0.5273479308430914  0.7472592306898328  0.7853140679819207
  0.0237448076262905  0.2469740807452669  0.3935026553475872
  0.0237448076262905  0.2469740807452669  0.7125565382524094
  0.0237448076262905  0.7469740807096475  0.3935026553475872
  0.0237448076262905  0.7469740807096475  0.7125565382524094
  0.5574482935670770  0.2561507295544413  0.3951661184279897
  0.5574482935670770  0.2561507295544413  0.7108930751720068
  0.5574482935670770  0.7561507295188219  0.3951661184279897
  0.5574482935670770  0.7561507295188219  0.7108930751720068
  0.4536445736509128  0.2452632462491971  0.5530295968000019
  0.4536445736509128  0.7452632611744604  0.5530295968000019
  0.9661642137443225  0.2438628523638312  0.5530295968000019
  0.9661642137443225  0.7438628672890942  0.5530295968000019
  0.2934425488486806  0.4913937468540986  0.5530295968000019
  0.2934425488486806  0.9913937468184792  0.5530295968000019
  0.7788760852682783  0.4976843431787452  0.5530295968000019
  0.7788760852682783 -0.0023156568568736  0.5530295968000019
  0.1992396558975900  0.0033881796697400  0.3921186135566390
  0.1992396558975900  0.0033881796697400  0.7139405800433578
  0.1992396558975900  0.5033881766200196  0.3921186135566390
  0.1992396558975900  0.5033881766200196  0.7139405800433578
  0.7102981347666601  0.0151618672440759  0.3922635627316209
  0.7102981347666601  0.0151618672440758  0.7137956308683752
  0.7102981347666601  0.5151618641943553  0.3922635627316209
  0.7102981347666601  0.5151618641943553  0.7137956308683752
  0.3947086312395179  0.1060604624429910  0.3326054154514487
  0.3962873056795999  0.1029002267437624  0.6462856622094113
  0.3947086312395179  0.6060604326500120  0.3326054154514487
  0.3962873056795999  0.6029001969507840  0.6462856622094113
  0.8968243111733276  0.0989034191248120  0.6443874963819934
  0.8968243111733276  0.5989033893318333  0.6443874963819934
  0.0986385474155311  0.3984643288539184  0.6210152137837265
  0.0986385474155311  0.8984644182547684  0.6210152137837265
  0.5810073015938583  0.4078853794457581  0.2995331069743650
  0.5950224340074736  0.4009968746469352  0.6203436147367057
  0.5810073015938583  0.9078854688466078  0.2995331069743650
  0.5950224340074736  0.9009969640477844  0.6203436147367057
  0.1479856351917243  0.1462258513797155  0.6196892558172176
  0.1479856351917243  0.6462258812110565  0.6196892558172176
  0.6766289383536240  0.1667723101092141  0.3016540920272999
  0.6484147203492449  0.1508089953394617  0.6184612940378272
  0.6766289383536240  0.6667723399405552  0.3016540920272999
  0.6484147203492449  0.6508090251708024  0.6184612940378272
  0.3552113240610545  0.3437451564816651  0.3337648778302138
  0.3493260502393649  0.3521547988310951  0.6461740740592035
  0.3552113240610545  0.8437451266886932  0.3337648778302138
  0.3493260502393649  0.8521547690381233  0.6461740740592035
  0.8601107794958933  0.3825878861728636  0.3235880475980378
  0.8445905218346151  0.3494945324292571  0.6424867096686753
  0.8601107794958933  0.8825878563798920  0.3235880475980378
  0.8445905218346151  0.8494945026362853  0.6424867096686753
  0.0986385474155311  0.3984643288539184  0.4850439202162720
  0.0986385474155311  0.8984644182547684  0.4850439202162720
  0.5950224340074736  0.4009968746469352  0.4857155192632929
  0.5810073015938583  0.4078853794457581  0.8065260568256400
  0.5950224340074736  0.9009969640477844  0.4857155192632929
  0.5810073015938583  0.9078854688466078  0.8065260568256400
  0.3962873056795999  0.1029002267437624  0.4597735015905934
  0.3947086312395179  0.1060604624429910  0.7734537185735540
  0.3962873056795999  0.6029001969507840  0.4597735015905934
  0.3947086312395179  0.6060604326500120  0.7734537185735540
  0.8968243111733276  0.0989034191248120  0.4616716674180112
  0.8968243111733276  0.5989033893318333  0.4616716674180112
  0.3493260502393649  0.3521547988310951  0.4598850897408013
  0.3552113240610545  0.3437451564816651  0.7722942561947885
  0.3493260502393649  0.8521547690381233  0.4598850897408013
  0.3552113240610545  0.8437451266886932  0.7722942561947885
  0.8445905218346151  0.3494945324292571  0.4635724541313298
  0.8601107794958933  0.3825878861728636  0.7824710864269648
  0.8445905218346151  0.8494945026362853  0.4635724541313298
  0.8601107794958933  0.8825878563798920  0.7824710864269648
  0.1479856351917243  0.1462258513797155  0.4863698781827810
  0.1479856351917243  0.6462258812110565  0.4863698781827810
  0.6484147203492449  0.1508089953394617  0.4875978399621723
  0.6766289383536240  0.1667723101092141  0.8044050717727046
  0.6484147203492449  0.6508090251708024  0.4875978399621723
  0.6766289383536240  0.6667723399405552  0.8044050717727046
 
  0.00000000E+00  0.00000000E+00  0.00000000E+00
  0.00000000E+00  0.00000000E+00  0.00000000E+00
  0.00000000E+00  0.00000000E+00  0.00000000E+00
  0.00000000E+00  0.00000000E+00  0.00000000E+00
  0.00000000E+00  0.00000000E+00  0.00000000E+00
  0.00000000E+00  0.00000000E+00  0.00000000E+00
  0.00000000E+00  0.00000000E+00  0.00000000E+00
  0.00000000E+00  0.00000000E+00  0.00000000E+00
  0.00000000E+00  0.00000000E+00  0.00000000E+00
  0.00000000E+00  0.00000000E+00  0.00000000E+00
  0.00000000E+00  0.00000000E+00  0.00000000E+00
  0.00000000E+00  0.00000000E+00  0.00000000E+00
  0.00000000E+00  0.00000000E+00  0.00000000E+00
  0.00000000E+00  0.00000000E+00  0.00000000E+00
  0.00000000E+00  0.00000000E+00  0.00000000E+00
  0.00000000E+00  0.00000000E+00  0.00000000E+00
  0.00000000E+00  0.00000000E+00  0.00000000E+00
  0.00000000E+00  0.00000000E+00  0.00000000E+00
  0.00000000E+00  0.00000000E+00  0.00000000E+00
  0.00000000E+00  0.00000000E+00  0.00000000E+00
  0.00000000E+00  0.00000000E+00  0.00000000E+00
  0.00000000E+00  0.00000000E+00  0.00000000E+00
  0.00000000E+00  0.00000000E+00  0.00000000E+00
  0.00000000E+00  0.00000000E+00  0.00000000E+00
  0.00000000E+00  0.00000000E+00  0.00000000E+00
  0.00000000E+00  0.00000000E+00  0.00000000E+00
  0.00000000E+00  0.00000000E+00  0.00000000E+00
  0.00000000E+00  0.00000000E+00  0.00000000E+00
  0.00000000E+00  0.00000000E+00  0.00000000E+00
  0.00000000E+00  0.00000000E+00  0.00000000E+00
  0.00000000E+00  0.00000000E+00  0.00000000E+00
  0.00000000E+00  0.00000000E+00  0.00000000E+00
  0.00000000E+00  0.00000000E+00  0.00000000E+00
  0.00000000E+00  0.00000000E+00  0.00000000E+00
  0.00000000E+00  0.00000000E+00  0.00000000E+00
  0.00000000E+00  0.00000000E+00  0.00000000E+00
  0.00000000E+00  0.00000000E+00  0.00000000E+00
  0.00000000E+00  0.00000000E+00  0.00000000E+00
  0.00000000E+00  0.00000000E+00  0.00000000E+00
  0.00000000E+00  0.00000000E+00  0.00000000E+00
  0.00000000E+00  0.00000000E+00  0.00000000E+00
  0.00000000E+00  0.00000000E+00  0.00000000E+00
  0.00000000E+00  0.00000000E+00  0.00000000E+00
  0.00000000E+00  0.00000000E+00  0.00000000E+00
  0.00000000E+00  0.00000000E+00  0.00000000E+00
  0.00000000E+00  0.00000000E+00  0.00000000E+00
  0.00000000E+00  0.00000000E+00  0.00000000E+00
  0.00000000E+00  0.00000000E+00  0.00000000E+00
  0.00000000E+00  0.00000000E+00  0.00000000E+00
  0.00000000E+00  0.00000000E+00  0.00000000E+00
  0.00000000E+00  0.00000000E+00  0.00000000E+00
  0.00000000E+00  0.00000000E+00  0.00000000E+00
  0.00000000E+00  0.00000000E+00  0.00000000E+00
  0.00000000E+00  0.00000000E+00  0.00000000E+00
  0.00000000E+00  0.00000000E+00  0.00000000E+00
  0.00000000E+00  0.00000000E+00  0.00000000E+00
  0.00000000E+00  0.00000000E+00  0.00000000E+00
  0.00000000E+00  0.00000000E+00  0.00000000E+00
  0.00000000E+00  0.00000000E+00  0.00000000E+00
  0.00000000E+00  0.00000000E+00  0.00000000E+00
  0.00000000E+00  0.00000000E+00  0.00000000E+00
  0.00000000E+00  0.00000000E+00  0.00000000E+00
  0.00000000E+00  0.00000000E+00  0.00000000E+00
  0.00000000E+00  0.00000000E+00  0.00000000E+00
  0.00000000E+00  0.00000000E+00  0.00000000E+00
  0.00000000E+00  0.00000000E+00  0.00000000E+00
  0.00000000E+00  0.00000000E+00  0.00000000E+00
  0.00000000E+00  0.00000000E+00  0.00000000E+00
  0.00000000E+00  0.00000000E+00  0.00000000E+00
  0.00000000E+00  0.00000000E+00  0.00000000E+00
  0.00000000E+00  0.00000000E+00  0.00000000E+00
  0.00000000E+00  0.00000000E+00  0.00000000E+00
  0.00000000E+00  0.00000000E+00  0.00000000E+00
  0.00000000E+00  0.00000000E+00  0.00000000E+00
  0.00000000E+00  0.00000000E+00  0.00000000E+00
  0.00000000E+00  0.00000000E+00  0.00000000E+00
  0.00000000E+00  0.00000000E+00  0.00000000E+00
  0.00000000E+00  0.00000000E+00  0.00000000E+00
  0.00000000E+00  0.00000000E+00  0.00000000E+00
  0.00000000E+00  0.00000000E+00  0.00000000E+00
  0.00000000E+00  0.00000000E+00  0.00000000E+00
  0.00000000E+00  0.00000000E+00  0.00000000E+00
  0.00000000E+00  0.00000000E+00  0.00000000E+00
  0.00000000E+00  0.00000000E+00  0.00000000E+00
  0.00000000E+00  0.00000000E+00  0.00000000E+00
  0.00000000E+00  0.00000000E+00  0.00000000E+00
  0.00000000E+00  0.00000000E+00  0.00000000E+00
  0.00000000E+00  0.00000000E+00  0.00000000E+00
  0.00000000E+00  0.00000000E+00  0.00000000E+00
  0.00000000E+00  0.00000000E+00  0.00000000E+00
  0.00000000E+00  0.00000000E+00  0.00000000E+00
  0.00000000E+00  0.00000000E+00  0.00000000E+00
  0.00000000E+00  0.00000000E+00  0.00000000E+00
  0.00000000E+00  0.00000000E+00  0.00000000E+00
  0.00000000E+00  0.00000000E+00  0.00000000E+00
  0.00000000E+00  0.00000000E+00  0.00000000E+00
  0.00000000E+00  0.00000000E+00  0.00000000E+00
  0.00000000E+00  0.00000000E+00  0.00000000E+00
  0.00000000E+00  0.00000000E+00  0.00000000E+00
  0.00000000E+00  0.00000000E+00  0.00000000E+00
  0.00000000E+00  0.00000000E+00  0.00000000E+00
  0.00000000E+00  0.00000000E+00  0.00000000E+00
  0.00000000E+00  0.00000000E+00  0.00000000E+00
  0.00000000E+00  0.00000000E+00  0.00000000E+00
  0.00000000E+00  0.00000000E+00  0.00000000E+00
  0.00000000E+00  0.00000000E+00  0.00000000E+00
  0.00000000E+00  0.00000000E+00  0.00000000E+00
  0.00000000E+00  0.00000000E+00  0.00000000E+00
  0.00000000E+00  0.00000000E+00  0.00000000E+00
  0.00000000E+00  0.00000000E+00  0.00000000E+00
  0.00000000E+00  0.00000000E+00  0.00000000E+00
  0.00000000E+00  0.00000000E+00  0.00000000E+00
  0.00000000E+00  0.00000000E+00  0.00000000E+00
  0.00000000E+00  0.00000000E+00  0.00000000E+00
  0.00000000E+00  0.00000000E+00  0.00000000E+00
  0.00000000E+00  0.00000000E+00  0.00000000E+00
  0.00000000E+00  0.00000000E+00  0.00000000E+00
  0.00000000E+00  0.00000000E+00  0.00000000E+00
  0.00000000E+00  0.00000000E+00  0.00000000E+00
  0.00000000E+00  0.00000000E+00  0.00000000E+00
  0.00000000E+00  0.00000000E+00  0.00000000E+00
  0.00000000E+00  0.00000000E+00  0.00000000E+00
  0.00000000E+00  0.00000000E+00  0.00000000E+00
  0.00000000E+00  0.00000000E+00  0.00000000E+00
  0.00000000E+00  0.00000000E+00  0.00000000E+00
  0.00000000E+00  0.00000000E+00  0.00000000E+00
  0.00000000E+00  0.00000000E+00  0.00000000E+00
  0.00000000E+00  0.00000000E+00  0.00000000E+00
