This file is generated by VASPKIT code
1.0
       17.3823947906         0.0000000000         0.0000000000
        0.0000000000        18.2475891113         0.0000000000
        0.0000000000         0.0000000000        40.0000000000
   Cs   Pb    I
   24   28   76
Cartesian
     8.625335886         8.808458588        15.800845623
     8.625335886         8.808458588        28.441522121
     8.625335886        17.932252600        15.800845623
     8.625335886        17.932252600        28.441522121
    17.316531728         8.808458588        15.800845623
    17.316531728         8.808458588        28.441522121
    17.316531728        17.932252600        15.800845623
    17.316531728        17.932252600        28.441522121
     0.065861898         0.315336580        22.121183872
     0.065861898         9.439131067        22.121183872
     8.757059422         0.315336580        22.121183872
     8.757059422         9.439131067        22.121183872
     4.279736930         4.877233789        22.121183872
     4.279736930        14.001028345        22.121183872
    12.970934066         4.877233789        22.121183872
    12.970934066        14.001028345        22.121183872
     4.411460725         4.246560494        15.800845623
     4.411460725         4.246560494        28.441522121
     4.411460725        13.370355322        15.800845623
     4.411460725        13.370355322        28.441522121
    13.102658120         4.246560494        15.800845623
    13.102658120         4.246560494        28.441522121
    13.102658120        13.370355322        15.800845623
    13.102658120        13.370355322        28.441522121
     4.345598698         0.000000000        12.640676498
     4.345598698         0.000000000        25.281352997
     4.345598698         9.123794556        12.640676498
     4.345598698         9.123794556        25.281352997
    13.036796093         0.000000000        12.640676498
    13.036796093         0.000000000        25.281352997
    13.036796093         9.123794556        12.640676498
    13.036796093         9.123794556        25.281352997
     0.000000000         4.561897278        25.281352997
     0.000000000        13.685691833        25.281352997
     8.691197395         4.561897278        12.640676498
     8.691197395         4.561897278        25.281352997
     8.691197395        13.685691833        12.640676498
     8.691197395        13.685691833        25.281352997
     4.345598698         0.000000000        18.961013556
     4.345598698         0.000000000        31.601691246
     4.345598698         9.123794556        18.961013556
     4.345598698         9.123794556        31.601691246
    13.036796093         0.000000000        18.961013556
    13.036796093         0.000000000        31.601691246
    13.036796093         9.123794556        18.961013556
    13.036796093         9.123794556        31.601691246
     0.000000000         4.561897278        18.961013556
     0.000000000        13.685691833        18.961013556
     8.691197395         4.561897278        18.961013556
     8.691197395         4.561897278        31.601691246
     8.691197395        13.685691833        18.961013556
     8.691197395        13.685691833        31.601691246
     0.447414156         4.627050241        15.800845623
     0.447414156         4.627050241        28.441522121
     0.447414156        13.750844796        15.800845623
     0.447414156        13.750844796        28.441522121
     9.138611389         4.627050241        15.800845623
     9.138611389         4.627050241        28.441522121
     9.138611389        13.750844796        15.800845623
     9.138611389        13.750844796        28.441522121
     8.243782883         4.496744043        22.121183872
     8.243782883        13.620538871        22.121183872
    16.934980797         4.496744043        22.121183872
    16.934980797        13.620538871        22.121183872
     4.793012692         9.058641593        22.121183872
     4.793012692        18.182436148        22.121183872
    13.484210087         9.058641593        22.121183872
    13.484210087        18.182436148        22.121183872
     3.898184445         0.065153018        15.800845623
     3.898184445         0.065153018        28.441522121
     3.898184445         9.188947518        15.800845623
     3.898184445         9.188947518        28.441522121
    12.589382099         0.065153018        15.800845623
    12.589382099         0.065153018        28.441522121
    12.589382099         9.188947518        15.800845623
    12.589382099         9.188947518        28.441522121
     6.923616476         1.860560683        12.968385220
     6.923616476         1.860560683        25.609061718
     6.923616476        10.984354695        12.968385220
     6.923616476        10.984354695        25.609061718
    15.614813353         1.860560683        25.609061718
    15.614813353        10.984354695        25.609061718
     1.767580919         7.263233872        24.953641891
     1.767580919        16.387030059        24.953641891
    10.458778833         7.263233872        12.312966585
    10.458778833         7.263233872        24.953641891
    10.458778833        16.387030059        12.312966585
    10.458778833        16.387030059        24.953641891
     2.578017778         2.701336594        24.953641891
     2.578017778        11.825131694        24.953641891
    11.269214656         2.701336594        12.312966585
    11.269214656         2.701336594        24.953641891
    11.269214656        11.825131694        12.312966585
    11.269214656        11.825131694        24.953641891
     6.113179617         6.422457961        12.968385220
     6.113179617         6.422457961        25.609061718
     6.113179617        15.546251973        12.968385220
     6.113179617        15.546251973        25.609061718
    14.804377530         6.422457961        12.968385220
    14.804377530         6.422457961        25.609061718
    14.804377530        15.546251973        12.968385220
    14.804377530        15.546251973        25.609061718
     1.767580919         7.263233872        19.288723469
     1.767580919        16.387030059        19.288723469
    10.458778833         7.263233872        19.288723469
    10.458778833         7.263233872        31.929399967
    10.458778833        16.387030059        19.288723469
    10.458778833        16.387030059        31.929399967
     6.923616476         1.860560683        18.633304834
     6.923616476         1.860560683        31.273980141
     6.923616476        10.984354695        18.633304834
     6.923616476        10.984354695        31.273980141
    15.614813353         1.860560683        18.633304834
    15.614813353        10.984354695        18.633304834
     6.113179617         6.422457961        18.633304834
     6.113179617         6.422457961        31.273980141
     6.113179617        15.546251973        18.633304834
     6.113179617        15.546251973        31.273980141
    14.804377530         6.422457961        18.633304834
    14.804377530         6.422457961        31.273980141
    14.804377530        15.546251973        18.633304834
    14.804377530        15.546251973        31.273980141
     2.578017778         2.701336594        19.288723469
     2.578017778        11.825131694        19.288723469
    11.269214656         2.701336594        19.288723469
    11.269214656         2.701336594        31.929399967
    11.269214656        11.825131694        19.288723469
    11.269214656        11.825131694        31.929399967
