This file is generated by VASPKIT code  
   1.00000000000000     
    17.3823941941652436    0.0000000000000000    0.0000000000000010
     0.0000000000000028   18.2475883808102353    0.0000000000000010
     0.0000000000000000    0.0000000000000000   40.0000000000000000
   Cs   Pb   I 
    24    32    88
Direct
  0.4836393756596766  0.4669587627441350  0.3900115195152869
  0.4836393756596766  0.4669587627441350  0.7160476360088491
  0.4836393756596766  0.9669587627441349  0.3900115195152869
  0.4836393756596766  0.9669587627441349  0.7160476360088491
  0.9836393756596767  0.4669587627441350  0.3900115195152869
  0.9836393756596767  0.4669587627441350  0.7160476360088491
  0.9836393756596767  0.9669587627441349  0.3900115195152869
  0.9836393756596767  0.9669587627441349  0.7160476360088491
  0.0145916014002803  0.0357492604959384  0.5530295777620680
  0.0145916014002803  0.5357492604959382  0.5530295777620680
  0.5145916014002800  0.0357492604959384  0.5530295777620680
  0.5145916014002800  0.5357492604959382  0.5530295777620680
  0.2354083985997197  0.2857492604959384  0.5530295777620680
  0.2354083985997197  0.7857492604959382  0.5530295777620680
  0.7354083985997200  0.2857492604959384  0.5530295777620680
  0.7354083985997200  0.7857492604959382  0.5530295777620680
  0.2663606243403234  0.2169587627441348  0.3900115195152869
  0.2663606243403234  0.2169587627441348  0.7160476360088491
  0.2663606243403234  0.7169587627441349  0.3900115195152869
  0.2663606243403234  0.7169587627441349  0.7160476360088491
  0.7663606243403233  0.2169587627441348  0.3900115195152869
  0.7663606243403233  0.2169587627441348  0.7160476360088491
  0.7663606243403233  0.7169587627441349  0.3900115195152869
  0.7663606243403233  0.7169587627441349  0.7160476360088491
  0.2399606883783842 -0.0072797132221947  0.3195061033320101
  0.2511850078257289  0.0000775453541760  0.6314304030444635
  0.2399606883783842  0.4927202867778053  0.3195061033320101
  0.2511850078257289  0.5000775453541759  0.6314304030444635
  0.7399606883783842 -0.0072797132221947  0.3195061033320101
  0.7511850078257291  0.0000775453541760  0.6314304030444635
  0.7399606883783842  0.4927202867778053  0.3195061033320101
  0.7511850078257291  0.5000775453541759  0.6314304030444635
  0.0100393116216158  0.2427202867778054  0.3195061033320101
 -0.0011850078257291  0.2500775453541761  0.6314304030444635
  0.0100393116216158  0.7427202867778052  0.3195061033320101
 -0.0011850078257291  0.7500775453541759  0.6314304030444635
  0.5100393116216158  0.2427202867778054  0.3195061033320101
  0.4988149921742711  0.2500775453541761  0.6314304030444635
  0.5100393116216158  0.7427202867778052  0.3195061033320101
  0.4988149921742711  0.7500775453541759  0.6314304030444635
  0.2511850078257289  0.0000775453541760  0.4746287524796654
  0.2399606883783842 -0.0072797132221947  0.7865530521921186
  0.2511850078257289  0.5000775453541759  0.4746287524796654
  0.2399606883783842  0.4927202867778053  0.7865530521921186
  0.7511850078257291  0.0000775453541760  0.4746287524796654
  0.7399606883783842 -0.0072797132221947  0.7865530521921186
  0.7511850078257291  0.5000775453541759  0.4746287524796654
  0.7399606883783842  0.4927202867778053  0.7865530521921186
 -0.0011850078257291  0.2500775453541761  0.4746287524796654
  0.0100393116216158  0.2427202867778054  0.7865530521921186
 -0.0011850078257291  0.7500775453541759  0.4746287524796654
  0.0100393116216158  0.7427202867778052  0.7865530521921186
  0.4988149921742711  0.2500775453541761  0.4746287524796654
  0.5100393116216158  0.2427202867778054  0.7865530521921186
  0.4988149921742711  0.7500775453541759  0.4746287524796654
  0.5100393116216158  0.7427202867778052  0.7865530521921186
  0.0429671883591752  0.2570786324055759  0.3951663217284809
  0.0429671883591752  0.2570786324055759  0.7108928337956555
  0.0429671883591752  0.7570786324055756  0.3951663217284809
  0.0429671883591752  0.7570786324055756  0.7108928337956555
  0.5429671883591750  0.2570786324055759  0.3951663217284809
  0.5429671883591750  0.2570786324055759  0.7108928337956555
  0.5429671883591750  0.7570786324055756  0.3951663217284809
  0.5429671883591750  0.7570786324055756  0.7108928337956555
  0.4584416619731156  0.2447622206968827  0.5530295777620680
  0.4584416619731156  0.7447622206968828  0.5530295777620680
  0.9584416619731160  0.2447622206968827  0.5530295777620680
  0.9584416619731160  0.7447622206968828  0.5530295777620680
  0.2915583380268844  0.4947622206968826  0.5530295777620680
  0.2915583380268844  0.9947622206968828  0.5530295777620680
  0.7915583380268840  0.4947622206968826  0.5530295777620680
  0.7915583380268840  0.9947622206968828  0.5530295777620680
  0.2070328116408247  0.0070786324055758  0.3951663217284809
  0.2070328116408247  0.0070786324055758  0.7108928337956555
  0.2070328116408248  0.5070786324055756  0.3951663217284809
  0.2070328116408247  0.5070786324055756  0.7108928337956555
  0.7070328116408250  0.0070786324055758  0.3951663217284809
  0.7070328116408250  0.0070786324055758  0.7108928337956555
  0.7070328116408250  0.5070786324055756  0.3951663217284809
  0.7070328116408250  0.5070786324055756  0.7108928337956555
  0.3989491024794014  0.1072901391687996  0.3273328123438078
  0.4025141744236774  0.0994595688903036  0.6450300636369843
  0.3989491024794014  0.6072901391687997  0.3273328123438078
  0.4025141744236774  0.5994595688903035  0.6450300636369843
  0.8989491024794010  0.1072901391687996  0.3273328123438078
  0.9025141744236771  0.0994595688903036  0.6450300636369843
  0.8989491024794010  0.6072901391687997  0.3273328123438078
  0.9025141744236771  0.5994595688903035  0.6450300636369843
  0.0919054355790332  0.4060978857960506  0.3046425541513319
  0.0992493775973013  0.3982061882667461  0.6189615913940402
  0.0919054355790332  0.9060978857960506  0.3046425541513319
  0.0992493775973013  0.8982061882667464  0.6189615913940402
  0.5919054355790332  0.4060978857960506  0.3046425541513319
  0.5992493775973015  0.3982061882667461  0.6189615913940402
  0.5919054355790332  0.9060978857960506  0.3046425541513319
  0.5992493775973015  0.8982061882667464  0.6189615913940402
  0.1580945644209667  0.1560978857960506  0.3046425541513319
  0.1507506224026987  0.1482061882667462  0.6189615913940402
  0.1580945644209667  0.6560978857960506  0.3046425541513319
  0.1507506224026987  0.6482061882667464  0.6189615913940402
  0.6580945644209668  0.1560978857960506  0.3046425541513319
  0.6507506224026985  0.1482061882667462  0.6189615913940402
  0.6580945644209668  0.6560978857960506  0.3046425541513319
  0.6507506224026985  0.6482061882667464  0.6189615913940402
  0.3510508975205986  0.3572901391687997  0.3273328123438078
  0.3474858255763227  0.3494595688903037  0.6450300636369843
  0.3510508975205986  0.8572901391687997  0.3273328123438078
  0.3474858255763227  0.8494595688903035  0.6450300636369843
  0.8510508975205990  0.3572901391687997  0.3273328123438078
  0.8474858255763229  0.3494595688903037  0.6450300636369843
  0.8510508975205990  0.8572901391687997  0.3273328123438078
  0.8474858255763229  0.8494595688903035  0.6450300636369843
  0.0992493775973013  0.3982061882667461  0.4870975641300887
  0.0919054355790332  0.4060978857960506  0.8014166013727967
  0.0992493775973013  0.8982061882667464  0.4870975641300887
  0.0919054355790332  0.9060978857960506  0.8014166013727967
  0.5992493775973015  0.3982061882667461  0.4870975641300887
  0.5919054355790332  0.4060978857960506  0.8014166013727967
  0.5992493775973015  0.8982061882667464  0.4870975641300887
  0.5919054355790332  0.9060978857960506  0.8014166013727967
  0.4025141744236774  0.0994595688903036  0.4610290918871439
  0.3989491024794014  0.1072901391687996  0.7787263431803209
  0.4025141744236774  0.5994595688903035  0.4610290918871439
  0.3989491024794014  0.6072901391687997  0.7787263431803209
  0.9025141744236771  0.0994595688903036  0.4610290918871439
  0.8989491024794010  0.1072901391687996  0.7787263431803209
  0.9025141744236771  0.5994595688903035  0.4610290918871439
  0.8989491024794010  0.6072901391687997  0.7787263431803209
  0.3474858255763227  0.3494595688903037  0.4610290918871439
  0.3510508975205986  0.3572901391687997  0.7787263431803209
  0.3474858255763227  0.8494595688903035  0.4610290918871439
  0.3510508975205986  0.8572901391687997  0.7787263431803209
  0.8474858255763229  0.3494595688903037  0.4610290918871439
  0.8510508975205990  0.3572901391687997  0.7787263431803209
  0.8474858255763229  0.8494595688903035  0.4610290918871439
  0.8510508975205990  0.8572901391687997  0.7787263431803209
  0.1507506224026987  0.1482061882667462  0.4870975641300887
  0.1580945644209667  0.1560978857960506  0.8014166013727967
  0.1507506224026987  0.6482061882667464  0.4870975641300887
  0.1580945644209667  0.6560978857960506  0.8014166013727967
  0.6507506224026985  0.1482061882667462  0.4870975641300887
  0.6580945644209668  0.1560978857960506  0.8014166013727967
  0.6507506224026985  0.6482061882667464  0.4870975641300887
  0.6580945644209668  0.6560978857960506  0.8014166013727967
 
  0.00000000E+00  0.00000000E+00  0.00000000E+00
  0.00000000E+00  0.00000000E+00  0.00000000E+00
  0.00000000E+00  0.00000000E+00  0.00000000E+00
  0.00000000E+00  0.00000000E+00  0.00000000E+00
  0.00000000E+00  0.00000000E+00  0.00000000E+00
  0.00000000E+00  0.00000000E+00  0.00000000E+00
  0.00000000E+00  0.00000000E+00  0.00000000E+00
  0.00000000E+00  0.00000000E+00  0.00000000E+00
  0.00000000E+00  0.00000000E+00  0.00000000E+00
  0.00000000E+00  0.00000000E+00  0.00000000E+00
  0.00000000E+00  0.00000000E+00  0.00000000E+00
  0.00000000E+00  0.00000000E+00  0.00000000E+00
  0.00000000E+00  0.00000000E+00  0.00000000E+00
  0.00000000E+00  0.00000000E+00  0.00000000E+00
  0.00000000E+00  0.00000000E+00  0.00000000E+00
  0.00000000E+00  0.00000000E+00  0.00000000E+00
  0.00000000E+00  0.00000000E+00  0.00000000E+00
  0.00000000E+00  0.00000000E+00  0.00000000E+00
  0.00000000E+00  0.00000000E+00  0.00000000E+00
  0.00000000E+00  0.00000000E+00  0.00000000E+00
  0.00000000E+00  0.00000000E+00  0.00000000E+00
  0.00000000E+00  0.00000000E+00  0.00000000E+00
  0.00000000E+00  0.00000000E+00  0.00000000E+00
  0.00000000E+00  0.00000000E+00  0.00000000E+00
  0.00000000E+00  0.00000000E+00  0.00000000E+00
  0.00000000E+00  0.00000000E+00  0.00000000E+00
  0.00000000E+00  0.00000000E+00  0.00000000E+00
  0.00000000E+00  0.00000000E+00  0.00000000E+00
  0.00000000E+00  0.00000000E+00  0.00000000E+00
  0.00000000E+00  0.00000000E+00  0.00000000E+00
  0.00000000E+00  0.00000000E+00  0.00000000E+00
  0.00000000E+00  0.00000000E+00  0.00000000E+00
  0.00000000E+00  0.00000000E+00  0.00000000E+00
  0.00000000E+00  0.00000000E+00  0.00000000E+00
  0.00000000E+00  0.00000000E+00  0.00000000E+00
  0.00000000E+00  0.00000000E+00  0.00000000E+00
  0.00000000E+00  0.00000000E+00  0.00000000E+00
  0.00000000E+00  0.00000000E+00  0.00000000E+00
  0.00000000E+00  0.00000000E+00  0.00000000E+00
  0.00000000E+00  0.00000000E+00  0.00000000E+00
  0.00000000E+00  0.00000000E+00  0.00000000E+00
  0.00000000E+00  0.00000000E+00  0.00000000E+00
  0.00000000E+00  0.00000000E+00  0.00000000E+00
  0.00000000E+00  0.00000000E+00  0.00000000E+00
  0.00000000E+00  0.00000000E+00  0.00000000E+00
  0.00000000E+00  0.00000000E+00  0.00000000E+00
  0.00000000E+00  0.00000000E+00  0.00000000E+00
  0.00000000E+00  0.00000000E+00  0.00000000E+00
  0.00000000E+00  0.00000000E+00  0.00000000E+00
  0.00000000E+00  0.00000000E+00  0.00000000E+00
  0.00000000E+00  0.00000000E+00  0.00000000E+00
  0.00000000E+00  0.00000000E+00  0.00000000E+00
  0.00000000E+00  0.00000000E+00  0.00000000E+00
  0.00000000E+00  0.00000000E+00  0.00000000E+00
  0.00000000E+00  0.00000000E+00  0.00000000E+00
  0.00000000E+00  0.00000000E+00  0.00000000E+00
  0.00000000E+00  0.00000000E+00  0.00000000E+00
  0.00000000E+00  0.00000000E+00  0.00000000E+00
  0.00000000E+00  0.00000000E+00  0.00000000E+00
  0.00000000E+00  0.00000000E+00  0.00000000E+00
  0.00000000E+00  0.00000000E+00  0.00000000E+00
  0.00000000E+00  0.00000000E+00  0.00000000E+00
  0.00000000E+00  0.00000000E+00  0.00000000E+00
  0.00000000E+00  0.00000000E+00  0.00000000E+00
  0.00000000E+00  0.00000000E+00  0.00000000E+00
  0.00000000E+00  0.00000000E+00  0.00000000E+00
  0.00000000E+00  0.00000000E+00  0.00000000E+00
  0.00000000E+00  0.00000000E+00  0.00000000E+00
  0.00000000E+00  0.00000000E+00  0.00000000E+00
  0.00000000E+00  0.00000000E+00  0.00000000E+00
  0.00000000E+00  0.00000000E+00  0.00000000E+00
  0.00000000E+00  0.00000000E+00  0.00000000E+00
  0.00000000E+00  0.00000000E+00  0.00000000E+00
  0.00000000E+00  0.00000000E+00  0.00000000E+00
  0.00000000E+00  0.00000000E+00  0.00000000E+00
  0.00000000E+00  0.00000000E+00  0.00000000E+00
  0.00000000E+00  0.00000000E+00  0.00000000E+00
  0.00000000E+00  0.00000000E+00  0.00000000E+00
  0.00000000E+00  0.00000000E+00  0.00000000E+00
  0.00000000E+00  0.00000000E+00  0.00000000E+00
  0.00000000E+00  0.00000000E+00  0.00000000E+00
  0.00000000E+00  0.00000000E+00  0.00000000E+00
  0.00000000E+00  0.00000000E+00  0.00000000E+00
  0.00000000E+00  0.00000000E+00  0.00000000E+00
  0.00000000E+00  0.00000000E+00  0.00000000E+00
  0.00000000E+00  0.00000000E+00  0.00000000E+00
  0.00000000E+00  0.00000000E+00  0.00000000E+00
  0.00000000E+00  0.00000000E+00  0.00000000E+00
  0.00000000E+00  0.00000000E+00  0.00000000E+00
  0.00000000E+00  0.00000000E+00  0.00000000E+00
  0.00000000E+00  0.00000000E+00  0.00000000E+00
  0.00000000E+00  0.00000000E+00  0.00000000E+00
  0.00000000E+00  0.00000000E+00  0.00000000E+00
  0.00000000E+00  0.00000000E+00  0.00000000E+00
  0.00000000E+00  0.00000000E+00  0.00000000E+00
  0.00000000E+00  0.00000000E+00  0.00000000E+00
  0.00000000E+00  0.00000000E+00  0.00000000E+00
  0.00000000E+00  0.00000000E+00  0.00000000E+00
  0.00000000E+00  0.00000000E+00  0.00000000E+00
  0.00000000E+00  0.00000000E+00  0.00000000E+00
  0.00000000E+00  0.00000000E+00  0.00000000E+00
  0.00000000E+00  0.00000000E+00  0.00000000E+00
  0.00000000E+00  0.00000000E+00  0.00000000E+00
  0.00000000E+00  0.00000000E+00  0.00000000E+00
  0.00000000E+00  0.00000000E+00  0.00000000E+00
  0.00000000E+00  0.00000000E+00  0.00000000E+00
  0.00000000E+00  0.00000000E+00  0.00000000E+00
  0.00000000E+00  0.00000000E+00  0.00000000E+00
  0.00000000E+00  0.00000000E+00  0.00000000E+00
  0.00000000E+00  0.00000000E+00  0.00000000E+00
  0.00000000E+00  0.00000000E+00  0.00000000E+00
  0.00000000E+00  0.00000000E+00  0.00000000E+00
  0.00000000E+00  0.00000000E+00  0.00000000E+00
  0.00000000E+00  0.00000000E+00  0.00000000E+00
  0.00000000E+00  0.00000000E+00  0.00000000E+00
  0.00000000E+00  0.00000000E+00  0.00000000E+00
  0.00000000E+00  0.00000000E+00  0.00000000E+00
  0.00000000E+00  0.00000000E+00  0.00000000E+00
  0.00000000E+00  0.00000000E+00  0.00000000E+00
  0.00000000E+00  0.00000000E+00  0.00000000E+00
  0.00000000E+00  0.00000000E+00  0.00000000E+00
  0.00000000E+00  0.00000000E+00  0.00000000E+00
  0.00000000E+00  0.00000000E+00  0.00000000E+00
  0.00000000E+00  0.00000000E+00  0.00000000E+00
  0.00000000E+00  0.00000000E+00  0.00000000E+00
  0.00000000E+00  0.00000000E+00  0.00000000E+00
  0.00000000E+00  0.00000000E+00  0.00000000E+00
  0.00000000E+00  0.00000000E+00  0.00000000E+00
  0.00000000E+00  0.00000000E+00  0.00000000E+00
  0.00000000E+00  0.00000000E+00  0.00000000E+00
  0.00000000E+00  0.00000000E+00  0.00000000E+00
  0.00000000E+00  0.00000000E+00  0.00000000E+00
  0.00000000E+00  0.00000000E+00  0.00000000E+00
  0.00000000E+00  0.00000000E+00  0.00000000E+00
  0.00000000E+00  0.00000000E+00  0.00000000E+00
  0.00000000E+00  0.00000000E+00  0.00000000E+00
  0.00000000E+00  0.00000000E+00  0.00000000E+00
  0.00000000E+00  0.00000000E+00  0.00000000E+00
  0.00000000E+00  0.00000000E+00  0.00000000E+00
  0.00000000E+00  0.00000000E+00  0.00000000E+00
  0.00000000E+00  0.00000000E+00  0.00000000E+00
  0.00000000E+00  0.00000000E+00  0.00000000E+00
  0.00000000E+00  0.00000000E+00  0.00000000E+00
  0.00000000E+00  0.00000000E+00  0.00000000E+00
