This file is generated by VASPKIT code
 1.000000
   17.3823941941652436    0.0000000000000000    0.0000000000000010
    0.0000000000000028   18.2475883808102353    0.0000000000000010
    0.0000000000000000    0.0000000000000000   40.0000000000000000
   Cs   Pb   I 
    24    32    88
Direct 
    0.4962110000000000    0.4827190000000000    0.3950211269729035     Cs1
    0.4962110000000000    0.4827190000000000    0.7110380285512264     Cs2
    0.4962110000000000    0.9827190000000000    0.3950211269729034     Cs3
    0.4962110000000000    0.9827190000000000    0.7110380285512264     Cs4
    0.9962109999999998    0.4827190000000000    0.3950211269729034     Cs5
    0.9962109999999998    0.4827190000000000    0.7110380285512264     Cs6
    0.9962110000000001    0.9827190000000000    0.3950211269729034     Cs7
    0.9962110000000001    0.9827190000000000    0.7110380285512266     Cs8
    0.0037890000000000    0.0172810000000000    0.5530295777620649     Cs9
    0.0037890000000000    0.5172810000000000    0.5530295777620649    Cs10
    0.5037889999999999    0.0172810000000000    0.5530295777620649    Cs11
    0.5037889999999999    0.5172810000000000    0.5530295777620649    Cs12
    0.2462110000000000    0.2672810000000000    0.5530295777620649    Cs13
    0.2462110000000000    0.7672810000000000    0.5530295777620649    Cs14
    0.7462110000000000    0.2672810000000000    0.5530295777620649    Cs15
    0.7462110000000000    0.7672810000000000    0.5530295777620649    Cs16
    0.2537890000000000    0.2327190000000000    0.3950211269729034    Cs17
    0.2537890000000000    0.2327190000000000    0.7110380285512264    Cs18
    0.2537890000000000    0.7327190000000000    0.3950211269729035    Cs19
    0.2537890000000000    0.7327190000000000    0.7110380285512264    Cs20
    0.7537889999999999    0.2327190000000000    0.3950211269729035    Cs21
    0.7537889999999999    0.2327190000000000    0.7110380285512264    Cs22
    0.7537889999999999    0.7327190000000000    0.3950211269729034    Cs23
    0.7537889999999999    0.7327190000000000    0.7110380285512264    Cs24
    0.2500000000000000    0.0000000000000000    0.3160169015783228     Pb1
    0.2500000000000000    0.0000000000000000    0.6320338031566456     Pb2
    0.2500000000000001    0.5000000000000000    0.3160169015783228     Pb3
    0.2500000000000001    0.5000000000000000    0.6320338031566456     Pb4
    0.7500000000000000    0.0000000000000000    0.3160169015783228     Pb5
    0.7500000000000000    0.0000000000000000    0.6320338031566456     Pb6
    0.7500000000000000    0.5000000000000000    0.3160169015783228     Pb7
    0.7500000000000000    0.5000000000000000    0.6320338031566456     Pb8
    0.0000000000000000    0.2500000000000000    0.3160169015783228     Pb9
    0.0000000000000000    0.2500000000000000    0.6320338031566456    Pb10
    0.0000000000000000    0.7500000000000000    0.3160169015783228    Pb11
    0.0000000000000000    0.7500000000000000    0.6320338031566456    Pb12
    0.4999999999999999    0.2500000000000000    0.3160169015783228    Pb13
    0.4999999999999999    0.2500000000000000    0.6320338031566456    Pb14
    0.5000000000000000    0.7500000000000000    0.3160169015783228    Pb15
    0.5000000000000000    0.7500000000000000    0.6320338031566456    Pb16
    0.2500000000000000    0.0000000000000000    0.4740253523674842    Pb17
    0.2500000000000000    0.0000000000000000    0.7900422539458071    Pb18
    0.2500000000000001    0.5000000000000000    0.4740253523674842    Pb19
    0.2500000000000001    0.5000000000000000    0.7900422539458071    Pb20
    0.7500000000000000    0.0000000000000000    0.4740253523674842    Pb21
    0.7500000000000000    0.0000000000000000    0.7900422539458071    Pb22
    0.7500000000000000    0.5000000000000000    0.4740253523674842    Pb23
    0.7500000000000000    0.5000000000000000    0.7900422539458071    Pb24
    0.0000000000000000    0.2500000000000000    0.4740253523674842    Pb25
    0.0000000000000000    0.2500000000000000    0.7900422539458071    Pb26
    0.0000000000000000    0.7500000000000000    0.4740253523674842    Pb27
    0.0000000000000000    0.7500000000000000    0.7900422539458071    Pb28
    0.4999999999999999    0.2500000000000000    0.4740253523674842    Pb29
    0.4999999999999999    0.2500000000000000    0.7900422539458071    Pb30
    0.5000000000000000    0.7500000000000000    0.4740253523674842    Pb31
    0.5000000000000000    0.7500000000000000    0.7900422539458071    Pb32
    0.0257395000000000    0.2535705000000000    0.3950211269729034      I1
    0.0257395000000000    0.2535705000000000    0.7110380285512264      I2
    0.0257395000000000    0.7535704999999999    0.3950211269729034      I3
    0.0257395000000000    0.7535704999999999    0.7110380285512264      I4
    0.5257395000000000    0.2535705000000000    0.3950211269729034      I5
    0.5257395000000000    0.2535705000000000    0.7110380285512264      I6
    0.5257395000000000    0.7535704999999999    0.3950211269729034      I7
    0.5257395000000000    0.7535704999999999    0.7110380285512264      I8
    0.4742604999999999    0.2464295000000000    0.5530295777620649      I9
    0.4742605000000000    0.7464295000000000    0.5530295777620649     I10
    0.9742605000000000    0.2464295000000000    0.5530295777620649     I11
    0.9742605000000001    0.7464295000000000    0.5530295777620649     I12
    0.2757395000000001    0.4964295000000000    0.5530295777620649     I13
    0.2757395000000000    0.9964295000000000    0.5530295777620649     I14
    0.7757395000000000    0.4964295000000000    0.5530295777620649     I15
    0.7757395000000001    0.9964295000000000    0.5530295777620649     I16
    0.2242605000000000    0.0035704999999999    0.3950211269729034     I17
    0.2242605000000000    0.0035704999999999    0.7110380285512264     I18
    0.2242605000000000    0.5035704999999999    0.3950211269729034     I19
    0.2242605000000000    0.5035704999999999    0.7110380285512264     I20
    0.7242605000000000    0.0035704999999999    0.3950211269729034     I21
    0.7242605000000000    0.0035704999999999    0.7110380285512264     I22
    0.7242605000000000    0.5035704999999999    0.3950211269729034     I23
    0.7242605000000000    0.5035704999999999    0.7110380285512264     I24
    0.3983120000000000    0.1019620000000000    0.3242096397517408     I25
    0.3983120000000000    0.1019620000000000    0.6402265413300636     I26
    0.3983119999999999    0.6019620000000000    0.3242096397517409     I27
    0.3983119999999999    0.6019620000000000    0.6402265413300636     I28
    0.8983120000000000    0.1019620000000000    0.3242096397517409     I29
    0.8983120000000000    0.1019620000000000    0.6402265413300636     I30
    0.8983120000000000    0.6019620000000000    0.3242096397517408     I31
    0.8983120000000000    0.6019620000000000    0.6402265413300636     I32
    0.1016880000000000    0.3980379999999999    0.3078241634049048     I33
    0.1016880000000000    0.3980379999999999    0.6238410649832277     I34
    0.1016880000000000    0.8980379999999999    0.3078241634049049     I35
    0.1016880000000000    0.8980379999999999    0.6238410649832277     I36
    0.6016880000000000    0.3980379999999999    0.3078241634049049     I37
    0.6016880000000000    0.3980379999999999    0.6238410649832277     I38
    0.6016880000000000    0.8980379999999999    0.3078241634049048     I39
    0.6016880000000000    0.8980379999999999    0.6238410649832277     I40
    0.1483120000000000    0.1480380000000000    0.3078241634049048     I41
    0.1483120000000000    0.1480380000000000    0.6238410649832277     I42
    0.1483120000000000    0.6480380000000000    0.3078241634049048     I43
    0.1483120000000000    0.6480380000000000    0.6238410649832277     I44
    0.6483120000000000    0.1480380000000000    0.3078241634049048     I45
    0.6483120000000000    0.1480380000000000    0.6238410649832277     I46
    0.6483120000000000    0.6480380000000000    0.3078241634049048     I47
    0.6483120000000000    0.6480380000000000    0.6238410649832277     I48
    0.3516880000000000    0.3519620000000000    0.3242096397517408     I49
    0.3516880000000000    0.3519620000000000    0.6402265413300636     I50
    0.3516880000000001    0.8519620000000000    0.3242096397517408     I51
    0.3516880000000001    0.8519620000000000    0.6402265413300636     I52
    0.8516880000000000    0.3519620000000000    0.3242096397517408     I53
    0.8516880000000000    0.3519620000000000    0.6402265413300636     I54
    0.8516880000000000    0.8519620000000000    0.3242096397517408     I55
    0.8516880000000000    0.8519620000000000    0.6402265413300636     I56
    0.1016880000000000    0.3980379999999999    0.4822180905409022     I57
    0.1016880000000000    0.3980379999999999    0.7982349921192250     I58
    0.1016880000000000    0.8980379999999999    0.4822180905409022     I59
    0.1016880000000000    0.8980379999999999    0.7982349921192250     I60
    0.6016880000000000    0.3980379999999999    0.4822180905409022     I61
    0.6016880000000000    0.3980379999999999    0.7982349921192250     I62
    0.6016880000000000    0.8980379999999999    0.4822180905409021     I63
    0.6016880000000000    0.8980379999999999    0.7982349921192250     I64
    0.3983120000000000    0.1019620000000000    0.4658326141940662     I65
    0.3983120000000000    0.1019620000000000    0.7818495157723890     I66
    0.3983119999999999    0.6019620000000000    0.4658326141940662     I67
    0.3983119999999999    0.6019620000000000    0.7818495157723890     I68
    0.8983120000000000    0.1019620000000000    0.4658326141940662     I69
    0.8983120000000000    0.1019620000000000    0.7818495157723890     I70
    0.8983120000000000    0.6019620000000000    0.4658326141940661     I71
    0.8983120000000000    0.6019620000000000    0.7818495157723890     I72
    0.3516880000000000    0.3519620000000000    0.4658326141940662     I73
    0.3516880000000000    0.3519620000000000    0.7818495157723890     I74
    0.3516880000000001    0.8519620000000000    0.4658326141940661     I75
    0.3516880000000001    0.8519620000000000    0.7818495157723890     I76
    0.8516880000000000    0.3519620000000000    0.4658326141940661     I77
    0.8516880000000000    0.3519620000000000    0.7818495157723890     I78
    0.8516880000000000    0.8519620000000000    0.4658326141940661     I79
    0.8516880000000000    0.8519620000000000    0.7818495157723890     I80
    0.1483120000000000    0.1480380000000000    0.4822180905409022     I81
    0.1483120000000000    0.1480380000000000    0.7982349921192250     I82
    0.1483120000000000    0.6480380000000000    0.4822180905409022     I83
    0.1483120000000000    0.6480380000000000    0.7982349921192250     I84
    0.6483120000000000    0.1480380000000000    0.4822180905409022     I85
    0.6483120000000000    0.1480380000000000    0.7982349921192250     I86
    0.6483120000000000    0.6480380000000000    0.4822180905409021     I87
    0.6483120000000000    0.6480380000000000    0.7982349921192250     I88
