This file is generated by VASPKIT code  
   1.00000000000000     
    17.3823947905999994    0.0000000000000000    0.0000000000000000
     0.0000000000000000   18.2475891113000017    0.0000000000000000
     0.0000000000000000    0.0000000000000000   40.0000000000000000
   Cs   Pb   I 
    36    32   104
Direct
  0.4856987536578012  0.4665763468889569  0.0878338984760866
  0.4895996986991181  0.4654017669421022  0.3950211405749968
  0.4856987536578012  0.4665763468889569  0.7022083230739160
  0.4928443001937318  0.9698665898962597  0.0900189625058005
  0.4912685641049073  0.9649027348932857  0.3950211405749968
  0.4928443001937318  0.9698665898962597  0.7000232590442027
  0.9934478430461700  0.4652301359733962  0.3950211405749968
  0.0197196668118363  0.9999928076971661  0.0936944961268061
  0.9885414677392752  0.9652863609158591  0.3950211405749968
  0.0197196668118363  0.9999928076971661  0.6963477254231968
  0.0126408798105633  0.0359722618669743  0.2382694044664864
  0.0126408798105633  0.0359722618669743  0.5517728617835183
  0.0131794628070200  0.5259348953806660  0.2315056596121896
  0.0131794628070200  0.5259348953806660  0.5585366066378155
  0.5037976527175505  0.0360586061542126  0.2393370920072539
  0.5037976527175505  0.0360586061542126  0.5507051742427507
  0.5021663804072757  0.5296927470842315  0.2393793849322002
  0.5021663804072757  0.5296927470842315  0.5506628813178048
  0.2295484006531693  0.2799374330987052  0.2305319790067853
  0.2295484006531693  0.2799374330987052  0.5595102872432194
  0.2409182711045221  0.7812896654571451  0.2386698994116106
  0.2409182711045221  0.7812896654571451  0.5513723668383943
  0.7518150557990478  0.2827223314587735  0.2381614475805278
  0.7518150557990478  0.2827223314587735  0.5518808186694768
  0.7447967227706793  0.7828892570988971  0.2398083616463018
  0.7447967227706793  0.7828892570988971  0.5502339046037029
  0.2600137389634827  0.2156806969214468  0.3950211405749968
  0.2406987237609976  0.7394576938874170  0.0885444029698295
  0.2572582547216846  0.7140684627005999  0.3950211405749968
  0.2406987237609976  0.7394576938874170  0.7014978185801733
  0.7573200312796221  0.2195892944492465  0.0895411790404380
  0.7595733238523658  0.2174167061387115  0.3950211405749968
  0.7573200312796221  0.2195892944492465  0.7005010425095647
  0.7554171804531766  0.7184479862002404  0.0887058010202545
  0.7613346472750482  0.7126382795956790  0.3950211405749968
  0.7554171804531766  0.7184479862002404  0.7013364205297485
  0.2501806250592459 -0.0001984149308534  0.3157899172203932
  0.2530817398234148 -0.0017980732653518  0.6359550817003025
  0.2497417234548997  0.4985073381654379  0.3145485757816861
  0.2492130753986415  0.4994820509109555  0.6404176682073391
  0.7499312158644813  0.0006679972487286  0.3156208357174476
  0.7437507828454845  0.0010672232257489  0.6327712177948837
  0.7520428090368562  0.4994648478874642  0.3151369140908228
  0.7508158380592349  0.5008125259421542  0.6362126059074686
  0.0019971930258524  0.2504748408537812  0.3148548272400732
  0.0001289310923814  0.2505698957158366  0.6422061901527429
 -0.0010748889153813  0.7484007923719964  0.3151314615681544
 -0.0013131030984812  0.7506710142823535  0.6362354590530556
  0.4981626748843493  0.2507604981851955  0.3149845879489991
  0.4996508148803610  0.2532710049893591  0.6347127392272743
  0.5002201537891351  0.7494427285314244  0.3160443544860325
  0.5056172157656992  0.7469779417717676  0.6329740832233203
  0.2530817398234148 -0.0017980732653518  0.1540871994496981
  0.2501806250592459 -0.0001984149308534  0.4742523341296087
  0.2492130753986415  0.4994820509109555  0.1496246129426615
  0.2497417234548997  0.4985073381654379  0.4754936755683157
  0.7437507828454845  0.0010672232257489  0.1572710633551172
  0.7499312158644813  0.0006679972487286  0.4744214156325542
  0.7508158380592349  0.5008125259421542  0.1538296752425320
  0.7520428090368562  0.4994648478874642  0.4749053372591790
  0.0001289310923814  0.2505698957158366  0.1478360909972580
  0.0019971930258524  0.2504748408537812  0.4751874241099286
 -0.0013131030984812  0.7506710142823535  0.1538068220969454
 -0.0010748889153813  0.7484007923719964  0.4749107897818475
  0.4996508148803610  0.2532710049893591  0.1553295419227260
  0.4981626748843493  0.2507604981851955  0.4750576634010027
  0.5056172157656992  0.7469779417717676  0.1570681979266806
  0.5002201537891351  0.7494427285314244  0.4739978968639694
 -0.0119181992263534  0.2229612052815098  0.0737855416659182
  0.0368319010590915  0.2545315125092116  0.3950211405749968
 -0.0119181992263534  0.2229612052815098  0.7162566798840847
  0.0194985411115952  0.7783720676021740  0.0783672559929006
  0.0350398106244104  0.7545402840480153  0.3950211405749968
  0.0194985411115952  0.7783720676021740  0.7116749655571023
  0.5378807208578770  0.2564252383523188  0.0803870934078551
  0.5358520912272917  0.2544932208215869  0.3950211405749968
  0.5378807208578770  0.2564252383523188  0.7096551281421475
  0.5299623430908461  0.7579665744113422  0.0802810632970141
  0.5391650566719051  0.7550961311319702  0.3950211405749968
  0.5299623430908461  0.7579665744113422  0.7097611582529890
  0.4569389203040015  0.2481999777775765  0.2380254504272263
  0.4569389203040015  0.2481999777775765  0.5520168158227785
  0.4667135650517966  0.7438396752445670  0.2386991027623383
  0.4667135650517966  0.7438396752445670  0.5513431634876664
  0.9806746017732666  0.2508730970368074  0.2363146130805047
  0.9806746017732666  0.2508730970368074  0.5537276531695000
  0.9667864136395201  0.7388256640535605  0.2371760530067436
  0.9667864136395201  0.7388256640535605  0.5528662132432609
  0.2753910989442467  0.4921476350757711  0.2363180708850959
  0.2753910989442467  0.4921476350757711  0.5537241953649092
  0.2795535542195836  0.9966333865037282  0.2377539947215915
  0.2795535542195836  0.9966333865037282  0.5522882715284139
  0.7876328631167041  0.4971715732440128  0.2374727966242581
  0.7876328631167041  0.4971715732440128  0.5525694696257468
  0.7870058083153658  0.9935331923278090  0.2386993421719530
  0.7870058083153658  0.9935331923278090  0.5513429240780520
  0.2432458239081482 -0.0275789765149499  0.0780137493892630
  0.2109898654478894  0.0054810872118963  0.3950211405749968
  0.2432458239081482 -0.0275789765149499  0.7120284721607399
  0.2571726395288721  0.5249746795594665  0.0749019647841945
  0.2159028884797974  0.5038621926642758  0.3950211405749968
  0.2571726395288721  0.5249746795594665  0.7151402567658084
  0.7164209551413446  0.0079415049454626  0.0808238568210040
  0.7133631657661351  0.0074086826365434  0.3950211405749968
  0.7164209551413446  0.0079415049454626  0.7092183647289988
  0.7071559075285160  0.5092606329916508  0.0795847181365179
  0.7138424356656833  0.5019571621249761  0.3950211405749968
  0.7071559075285160  0.5092606329916508  0.7104575034134852
  0.4010372148542412  0.0999933324635713  0.3287481678710068
  0.4006562649102380  0.1018473453249485  0.6381730652890936
  0.4005470699186519  0.6014570051810402  0.3278774468205197
  0.4035888951808678  0.6024240066928270  0.6362430267025377
  0.9014328975441657  0.1019391561906526  0.3273572996463206
  0.8914718637598470  0.1067326201760701  0.6333403691194214
  0.9007425297641963  0.6003112886007369  0.3291665669744498
  0.9005094925515713  0.6021623007317629  0.6469111732633389
  0.0969590396452108  0.4018035214915780  0.3051047714232206
  0.1028477329493252  0.3961938382574426  0.6313020967603591
  0.0982994290446528  0.8979388483620389  0.3046984163009003
  0.1045006403301583  0.8936170444698101  0.6186972328388898
  0.6007941598176586  0.3967458727381400  0.3039161192897497
  0.6007852691906378  0.3985587265025952  0.6189311695212063
  0.5987801245146601  0.8993459557241070  0.3045246691993735
  0.5985841201944737  0.8985012393982301  0.6176238510273894
  0.1544568850138786  0.1508442916951367  0.3045118432815578
  0.1401149834563987  0.1366297146862834  0.6290552574503601
  0.1503445808675988  0.6480981882397542  0.3050423911653082
  0.1485905058094091  0.6485830175893337  0.6234539880355899
  0.6503017557790026  0.1490200565586978  0.3031950957509468
  0.6458002758337676  0.1489500915640289  0.6172251323498806
  0.6508665500535080  0.6476601776724710  0.3050167820965184
  0.6548085784497517  0.6492081350381532  0.6182907827218570
  0.3495642663333269  0.3518461281956547  0.3289076723814908
  0.3485913315880064  0.3519151753308618  0.6442535144352840
  0.3490331648870479  0.8506912175920247  0.3286825438967564
  0.3551213986611108  0.8494664522789166  0.6356618389294044
  0.8499643405373540  0.3502520979132724  0.3275976731900689
  0.8494806261801472  0.3522240932116922  0.6383813430663058
  0.8486406300598427  0.8509635087069327  0.3285263157837083
  0.8489471623901029  0.8562484842062889  0.6394547809842802
  0.1028477329493252  0.3961938382574426  0.1587401396646428
  0.0969590396452108  0.4018035214915780  0.4849374799267813
  0.1045006403301583  0.8936170444698101  0.1713450035861123
  0.0982994290446528  0.8979388483620389  0.4853438350491016
  0.6007852691906378  0.3985587265025952  0.1711110669037954
  0.6007941598176586  0.3967458727381400  0.4861261320602521
  0.5985841201944737  0.8985012393982301  0.1724183853976128
  0.5987801245146601  0.8993459557241070  0.4855175821506283
  0.4006562649102380  0.1018473453249485  0.1518691860609077
  0.4010372148542412  0.0999933324635713  0.4612940834789950
  0.4035888951808678  0.6024240066928270  0.1537992246474639
  0.4005470699186519  0.6014570051810402  0.4621648045294822
  0.8914718637598470  0.1067326201760701  0.1567018822305808
  0.9014328975441657  0.1019391561906526  0.4626849517036813
  0.9005094925515713  0.6021623007317629  0.1431310780866631
  0.9007425297641963  0.6003112886007369  0.4608756843755520
  0.3485913315880064  0.3519151753308618  0.1457887369147180
  0.3495642663333269  0.3518461281956547  0.4611345789685111
  0.3551213986611108  0.8494664522789166  0.1543804124205972
  0.3490331648870479  0.8506912175920247  0.4613597074532454
  0.8494806261801472  0.3522240932116922  0.1516609082836959
  0.8499643405373540  0.3502520979132724  0.4624445781599329
  0.8489471623901029  0.8562484842062889  0.1505874703657220
  0.8486406300598427  0.8509635087069327  0.4615159355662935
  0.1401149834563987  0.1366297146862834  0.1609869789746417
  0.1544568850138786  0.1508442916951367  0.4855304080684440
  0.1485905058094091  0.6485830175893337  0.1665882483894120
  0.1503445808675988  0.6480981882397542  0.4849998601846937
  0.6458002758337676  0.1489500915640289  0.1728171040751212
  0.6503017557790026  0.1490200565586978  0.4868471555990551
  0.6548085784497517  0.6492081350381532  0.1717514537031450
  0.6508665500535080  0.6476601776724710  0.4850254692534834
 
  0.00000000E+00  0.00000000E+00  0.00000000E+00
  0.00000000E+00  0.00000000E+00  0.00000000E+00
  0.00000000E+00  0.00000000E+00  0.00000000E+00
  0.00000000E+00  0.00000000E+00  0.00000000E+00
  0.00000000E+00  0.00000000E+00  0.00000000E+00
  0.00000000E+00  0.00000000E+00  0.00000000E+00
  0.00000000E+00  0.00000000E+00  0.00000000E+00
  0.00000000E+00  0.00000000E+00  0.00000000E+00
  0.00000000E+00  0.00000000E+00  0.00000000E+00
  0.00000000E+00  0.00000000E+00  0.00000000E+00
  0.00000000E+00  0.00000000E+00  0.00000000E+00
  0.00000000E+00  0.00000000E+00  0.00000000E+00
  0.00000000E+00  0.00000000E+00  0.00000000E+00
  0.00000000E+00  0.00000000E+00  0.00000000E+00
  0.00000000E+00  0.00000000E+00  0.00000000E+00
  0.00000000E+00  0.00000000E+00  0.00000000E+00
  0.00000000E+00  0.00000000E+00  0.00000000E+00
  0.00000000E+00  0.00000000E+00  0.00000000E+00
  0.00000000E+00  0.00000000E+00  0.00000000E+00
  0.00000000E+00  0.00000000E+00  0.00000000E+00
  0.00000000E+00  0.00000000E+00  0.00000000E+00
  0.00000000E+00  0.00000000E+00  0.00000000E+00
  0.00000000E+00  0.00000000E+00  0.00000000E+00
  0.00000000E+00  0.00000000E+00  0.00000000E+00
  0.00000000E+00  0.00000000E+00  0.00000000E+00
  0.00000000E+00  0.00000000E+00  0.00000000E+00
  0.00000000E+00  0.00000000E+00  0.00000000E+00
  0.00000000E+00  0.00000000E+00  0.00000000E+00
  0.00000000E+00  0.00000000E+00  0.00000000E+00
  0.00000000E+00  0.00000000E+00  0.00000000E+00
  0.00000000E+00  0.00000000E+00  0.00000000E+00
  0.00000000E+00  0.00000000E+00  0.00000000E+00
  0.00000000E+00  0.00000000E+00  0.00000000E+00
  0.00000000E+00  0.00000000E+00  0.00000000E+00
  0.00000000E+00  0.00000000E+00  0.00000000E+00
  0.00000000E+00  0.00000000E+00  0.00000000E+00
  0.00000000E+00  0.00000000E+00  0.00000000E+00
  0.00000000E+00  0.00000000E+00  0.00000000E+00
  0.00000000E+00  0.00000000E+00  0.00000000E+00
  0.00000000E+00  0.00000000E+00  0.00000000E+00
  0.00000000E+00  0.00000000E+00  0.00000000E+00
  0.00000000E+00  0.00000000E+00  0.00000000E+00
  0.00000000E+00  0.00000000E+00  0.00000000E+00
  0.00000000E+00  0.00000000E+00  0.00000000E+00
  0.00000000E+00  0.00000000E+00  0.00000000E+00
  0.00000000E+00  0.00000000E+00  0.00000000E+00
  0.00000000E+00  0.00000000E+00  0.00000000E+00
  0.00000000E+00  0.00000000E+00  0.00000000E+00
  0.00000000E+00  0.00000000E+00  0.00000000E+00
  0.00000000E+00  0.00000000E+00  0.00000000E+00
  0.00000000E+00  0.00000000E+00  0.00000000E+00
  0.00000000E+00  0.00000000E+00  0.00000000E+00
  0.00000000E+00  0.00000000E+00  0.00000000E+00
  0.00000000E+00  0.00000000E+00  0.00000000E+00
  0.00000000E+00  0.00000000E+00  0.00000000E+00
  0.00000000E+00  0.00000000E+00  0.00000000E+00
  0.00000000E+00  0.00000000E+00  0.00000000E+00
  0.00000000E+00  0.00000000E+00  0.00000000E+00
  0.00000000E+00  0.00000000E+00  0.00000000E+00
  0.00000000E+00  0.00000000E+00  0.00000000E+00
  0.00000000E+00  0.00000000E+00  0.00000000E+00
  0.00000000E+00  0.00000000E+00  0.00000000E+00
  0.00000000E+00  0.00000000E+00  0.00000000E+00
  0.00000000E+00  0.00000000E+00  0.00000000E+00
  0.00000000E+00  0.00000000E+00  0.00000000E+00
  0.00000000E+00  0.00000000E+00  0.00000000E+00
  0.00000000E+00  0.00000000E+00  0.00000000E+00
  0.00000000E+00  0.00000000E+00  0.00000000E+00
  0.00000000E+00  0.00000000E+00  0.00000000E+00
  0.00000000E+00  0.00000000E+00  0.00000000E+00
  0.00000000E+00  0.00000000E+00  0.00000000E+00
  0.00000000E+00  0.00000000E+00  0.00000000E+00
  0.00000000E+00  0.00000000E+00  0.00000000E+00
  0.00000000E+00  0.00000000E+00  0.00000000E+00
  0.00000000E+00  0.00000000E+00  0.00000000E+00
  0.00000000E+00  0.00000000E+00  0.00000000E+00
  0.00000000E+00  0.00000000E+00  0.00000000E+00
  0.00000000E+00  0.00000000E+00  0.00000000E+00
  0.00000000E+00  0.00000000E+00  0.00000000E+00
  0.00000000E+00  0.00000000E+00  0.00000000E+00
  0.00000000E+00  0.00000000E+00  0.00000000E+00
  0.00000000E+00  0.00000000E+00  0.00000000E+00
  0.00000000E+00  0.00000000E+00  0.00000000E+00
  0.00000000E+00  0.00000000E+00  0.00000000E+00
  0.00000000E+00  0.00000000E+00  0.00000000E+00
  0.00000000E+00  0.00000000E+00  0.00000000E+00
  0.00000000E+00  0.00000000E+00  0.00000000E+00
  0.00000000E+00  0.00000000E+00  0.00000000E+00
  0.00000000E+00  0.00000000E+00  0.00000000E+00
  0.00000000E+00  0.00000000E+00  0.00000000E+00
  0.00000000E+00  0.00000000E+00  0.00000000E+00
  0.00000000E+00  0.00000000E+00  0.00000000E+00
  0.00000000E+00  0.00000000E+00  0.00000000E+00
  0.00000000E+00  0.00000000E+00  0.00000000E+00
  0.00000000E+00  0.00000000E+00  0.00000000E+00
  0.00000000E+00  0.00000000E+00  0.00000000E+00
  0.00000000E+00  0.00000000E+00  0.00000000E+00
  0.00000000E+00  0.00000000E+00  0.00000000E+00
  0.00000000E+00  0.00000000E+00  0.00000000E+00
  0.00000000E+00  0.00000000E+00  0.00000000E+00
  0.00000000E+00  0.00000000E+00  0.00000000E+00
  0.00000000E+00  0.00000000E+00  0.00000000E+00
  0.00000000E+00  0.00000000E+00  0.00000000E+00
  0.00000000E+00  0.00000000E+00  0.00000000E+00
  0.00000000E+00  0.00000000E+00  0.00000000E+00
  0.00000000E+00  0.00000000E+00  0.00000000E+00
  0.00000000E+00  0.00000000E+00  0.00000000E+00
  0.00000000E+00  0.00000000E+00  0.00000000E+00
  0.00000000E+00  0.00000000E+00  0.00000000E+00
  0.00000000E+00  0.00000000E+00  0.00000000E+00
  0.00000000E+00  0.00000000E+00  0.00000000E+00
  0.00000000E+00  0.00000000E+00  0.00000000E+00
  0.00000000E+00  0.00000000E+00  0.00000000E+00
  0.00000000E+00  0.00000000E+00  0.00000000E+00
  0.00000000E+00  0.00000000E+00  0.00000000E+00
  0.00000000E+00  0.00000000E+00  0.00000000E+00
  0.00000000E+00  0.00000000E+00  0.00000000E+00
  0.00000000E+00  0.00000000E+00  0.00000000E+00
  0.00000000E+00  0.00000000E+00  0.00000000E+00
  0.00000000E+00  0.00000000E+00  0.00000000E+00
  0.00000000E+00  0.00000000E+00  0.00000000E+00
  0.00000000E+00  0.00000000E+00  0.00000000E+00
  0.00000000E+00  0.00000000E+00  0.00000000E+00
  0.00000000E+00  0.00000000E+00  0.00000000E+00
  0.00000000E+00  0.00000000E+00  0.00000000E+00
  0.00000000E+00  0.00000000E+00  0.00000000E+00
  0.00000000E+00  0.00000000E+00  0.00000000E+00
  0.00000000E+00  0.00000000E+00  0.00000000E+00
  0.00000000E+00  0.00000000E+00  0.00000000E+00
  0.00000000E+00  0.00000000E+00  0.00000000E+00
  0.00000000E+00  0.00000000E+00  0.00000000E+00
  0.00000000E+00  0.00000000E+00  0.00000000E+00
  0.00000000E+00  0.00000000E+00  0.00000000E+00
  0.00000000E+00  0.00000000E+00  0.00000000E+00
  0.00000000E+00  0.00000000E+00  0.00000000E+00
  0.00000000E+00  0.00000000E+00  0.00000000E+00
  0.00000000E+00  0.00000000E+00  0.00000000E+00
  0.00000000E+00  0.00000000E+00  0.00000000E+00
  0.00000000E+00  0.00000000E+00  0.00000000E+00
  0.00000000E+00  0.00000000E+00  0.00000000E+00
  0.00000000E+00  0.00000000E+00  0.00000000E+00
  0.00000000E+00  0.00000000E+00  0.00000000E+00
  0.00000000E+00  0.00000000E+00  0.00000000E+00
  0.00000000E+00  0.00000000E+00  0.00000000E+00
  0.00000000E+00  0.00000000E+00  0.00000000E+00
  0.00000000E+00  0.00000000E+00  0.00000000E+00
  0.00000000E+00  0.00000000E+00  0.00000000E+00
  0.00000000E+00  0.00000000E+00  0.00000000E+00
  0.00000000E+00  0.00000000E+00  0.00000000E+00
  0.00000000E+00  0.00000000E+00  0.00000000E+00
  0.00000000E+00  0.00000000E+00  0.00000000E+00
  0.00000000E+00  0.00000000E+00  0.00000000E+00
  0.00000000E+00  0.00000000E+00  0.00000000E+00
  0.00000000E+00  0.00000000E+00  0.00000000E+00
  0.00000000E+00  0.00000000E+00  0.00000000E+00
  0.00000000E+00  0.00000000E+00  0.00000000E+00
  0.00000000E+00  0.00000000E+00  0.00000000E+00
  0.00000000E+00  0.00000000E+00  0.00000000E+00
  0.00000000E+00  0.00000000E+00  0.00000000E+00
  0.00000000E+00  0.00000000E+00  0.00000000E+00
  0.00000000E+00  0.00000000E+00  0.00000000E+00
  0.00000000E+00  0.00000000E+00  0.00000000E+00
  0.00000000E+00  0.00000000E+00  0.00000000E+00
  0.00000000E+00  0.00000000E+00  0.00000000E+00
  0.00000000E+00  0.00000000E+00  0.00000000E+00
  0.00000000E+00  0.00000000E+00  0.00000000E+00
  0.00000000E+00  0.00000000E+00  0.00000000E+00
  0.00000000E+00  0.00000000E+00  0.00000000E+00
  0.00000000E+00  0.00000000E+00  0.00000000E+00
  0.00000000E+00  0.00000000E+00  0.00000000E+00
  0.00000000E+00  0.00000000E+00  0.00000000E+00
  0.00000000E+00  0.00000000E+00  0.00000000E+00
