This file is generated by VASPKIT code  
   1.00000000000000     
    12.6406764983999995    0.0000000000000000    0.0000000000000000
     0.0000000000000016   25.2016296386417515    0.0000000000000000
     0.0000000000000024    1.8348124745969625   55.7578901711374471
   Cs   Pb   I 
    24    32    88
Direct
  0.2500000000316405  0.4988353974303358  0.2335305229333791
  0.2500000000316476  0.4980176155393670  0.4663120774946762
  0.2500000000316476 -0.0011646025696644  0.2335305229333791
  0.2500000000316476  0.9980176155393672  0.4663120774946762
  0.2500000000316405  0.2454321026464684  0.3564283071761136
  0.2500000000316405  0.7454321026464681  0.3564283071761136
  0.7500000000158238  0.0216755101556610  0.2631977614692800
  0.7500000000158238  0.0208577282646849  0.4959793160305840
  0.7500000000158238  0.5216755101556607  0.2631977614692800
  0.7500000000158238  0.5208577282646850  0.4959793160305840
  0.7500000000158238  0.2742610175111860  0.3730815326910491
  0.7500000000158238  0.7742610175111795  0.3730815326910491
  0.7500000000158238  0.0347929385799458  0.3708625132725648
  0.7500000000158238  0.5347929385799459  0.3708625132725648
  0.7500000000158238  0.2742599895647758  0.2498241482613439
  0.7500000000158238  0.2777561993178650  0.4865371353402004
  0.7500000000158238  0.7742599895647756  0.2498241482613439
  0.7500000000158238  0.7777561993178648  0.4865371353402004
  0.2500000000316476  0.4849001741091374  0.3586473265972269
  0.2500000000316476  0.9849001741091372  0.3586473265972269
  0.2500000000316405  0.2419369208000846  0.2429727045279073
  0.2500000000316405  0.2454331305531808  0.4796856916067637
  0.2500000000316405  0.7419369208000848  0.2429727045279073
  0.2500000000316405  0.7454331305531811  0.4796856916067637
  0.0023463013857300  0.3824254060853604  0.3076613786668673
  0.0003128753175897  0.3887414235837468  0.5290857458698133
  0.0023463013857300  0.8824254060853605  0.3076613786668673
  0.0003128753175897  0.8887414235837466  0.5290857458698133
 -0.0003128753175897  0.1309516965739081  0.2004240939973496
  0.9976536986142701  0.1372677140722944  0.4218484612003025
 -0.0003128753175897  0.6309516965739080  0.2004240939973496
  0.9976536986142701  0.6372677140722942  0.4218484612003025
  0.9995680648514138  0.1342530269481106  0.3098625314411642
  0.0065664215447380  0.1317415924271965  0.5325349498097157
  0.9995680648514138  0.6342530269481107  0.3098625314411642
  0.0065664215447380  0.6317415924271961  0.5325349498097157
  0.9934335784552618  0.3879515277304582  0.1969748900574537
  0.0004319351485862  0.3854400932095440  0.4196473084259985
  0.9934335784552618  0.8879515277304586  0.1969748900574537
  0.0004319351485862  0.8854400932095440  0.4196473084259985
  0.4976536985984462  0.3824254060853604  0.3076613786668673
  0.4996871246665863  0.3887414235837468  0.5290857458698133
  0.4976536985984462  0.8824254060853605  0.3076613786668673
  0.4996871246665863  0.8887414235837466  0.5290857458698133
  0.5003128753017658  0.1309516965739081  0.2004240939973496
  0.5023463013699061  0.1372677140722944  0.4218484612003025
  0.5003128753017658  0.6309516965739080  0.2004240939973496
  0.5023463013699061  0.6372677140722942  0.4218484612003025
  0.5004319351327624  0.1342530269481106  0.3098625314411642
  0.4934335784394382  0.1317415924271965  0.5325349498097157
  0.5004319351327624  0.6342530269481107  0.3098625314411642
  0.4934335784394382  0.6317415924271961  0.5325349498097157
  0.5065664215289144  0.3879515277304582  0.1969748900574537
  0.4995680648355901  0.3854400932095440  0.4196473084259985
  0.5065664215289144  0.8879515277304586  0.1969748900574537
  0.4995680648355901  0.8854400932095440  0.4196473084259985
  0.2500000000316405  0.1159344872447012  0.3202405011205141
  0.2500000000316405  0.1393841708170704  0.5453377464137226
  0.2500000000316405  0.6159344872447007  0.3202405011205141
  0.2500000000316405  0.6393841708170704  0.5453377464137226
  0.2500000000316405  0.3688901556992756  0.2000189272371201
  0.2500000000316405  0.3651155413782828  0.4298494101623660
  0.2500000000316405  0.8688901556992755  0.2000189272371201
  0.2500000000316405  0.8651155413782755  0.4298494101623660
  0.7500000000158238  0.3803089418725387  0.1841720934753602
  0.7500000000158238  0.4037586254449005  0.4092693387685689
  0.7500000000158238  0.8803089418725385  0.1841720934753602
  0.7500000000158238  0.9037586254449012  0.4092693387685689
  0.7500000000158238  0.1545775787798906  0.2996604297241021
  0.7500000000158238  0.1508029644588977  0.5294909126493410
  0.7500000000158238  0.6545775787798979  0.2996604297241021
  0.7500000000158238  0.6508029644588978  0.5294909126493410
  0.7500000000158238  0.1231235282913744  0.2103486315696250
  0.7500000000158238  0.1092069753458871  0.4316424739881958
  0.7500000000158238  0.6231235282913747  0.2103486315696250
  0.7500000000158238  0.6092069753458872  0.4316424739881958
  0.7500000000158238  0.3575658335852335  0.3118723909756234
  0.7500000000158238  0.3785389979250292  0.5394298947525952
  0.7500000000158238  0.8575658335852334  0.3118723909756234
  0.7500000000158238  0.8785389979250292  0.5394298947525952
  0.2500000000316405  0.4104861446746542  0.2978673622711932
  0.2500000000316405  0.3965695917291595  0.5191612046897571
  0.2500000000316405  0.9104861446746541  0.2978673622711932
  0.2500000000316405  0.8965695917291594  0.5191612046897571
  0.2500000000316405  0.1411541222326252  0.1900799451145745
  0.2500000000316405  0.1621272865724210  0.4176374488915393
  0.2500000000316405  0.6411541222326255  0.1900799451145745
  0.2500000000316405  0.6621272865724213  0.4176374488915393
  0.0399245076227492  0.3589639895211150  0.3641234219047511
  0.0399245076227493  0.8589639895211150  0.3641234219047511
  0.0428160876256141  0.1049481550428619  0.2539040358826170
  0.0407014905740336  0.1103173975229786  0.4789469268538899
  0.0428160876256141  0.6049481550428621  0.2539040358826170
  0.0407014905740336  0.6103173975229788  0.4789469268538899
  0.9600755110154975  0.1607291306370583  0.3653864179817170
  0.9600755110154975  0.6607291306370584  0.3653864179817170
  0.9592985280642130  0.4093757226352017  0.2505629130325711
  0.9571839310126327  0.4147449651153116  0.4756058040038511
  0.9592985280642130  0.9093757226352017  0.2505629130325711
  0.9571839310126327  0.9147449651153112  0.4756058040038511
  0.9574784473081092  0.5083754570054985  0.3200507861951190
  0.9765374166184458  0.5113856601338853  0.5459958685212027
  0.9574784473081092  0.0083754570054987  0.3200507861951190
  0.9765374166184458  0.0113856601338855  0.5459958685212027
  0.9859212281667445  0.2556211103645544  0.2064909373773316
  0.9517391247562955  0.2600998904351935  0.4319970861433297
  0.9859212281667445  0.7556211103645546  0.2064909373773316
  0.9517391247562955  0.7600998904351931  0.4319970861433297
  0.0234626020198006  0.0083074599845899  0.1835139713662036
  0.0425215713301376  0.0113176631129766  0.4094590536922800
  0.0234626020198006  0.5083074599845900  0.1835139713662036
  0.0425215713301376  0.5113176631129769  0.4094590536922800
  0.0482608938819511  0.2595932296827632  0.2975127537247851
  0.0140787904715015  0.2640720097534022  0.5230189024907690
  0.0482608938819511  0.7595932296827635  0.2975127537247851
  0.0140787904715015  0.7640720097534021  0.5230189024907690
  0.5399244890161501  0.1607291306370583  0.3653864179817170
  0.5399244890161501  0.6607291306370584  0.3653864179817170
  0.5407014719674346  0.4093757226352017  0.2505629130325711
  0.5428160690190149  0.4147449651153116  0.4756058040038511
  0.5407014719674346  0.9093757226352017  0.2505629130325711
  0.5428160690190149  0.9147449651153112  0.4756058040038511
  0.4600754812069646  0.3589639895211150  0.3641234219047511
  0.4600754812069646  0.8589639895211150  0.3641234219047511
  0.4571839012041000  0.1049481550428619  0.2539040358826170
  0.4592984982556804  0.1103173975229786  0.4789469268538899
  0.4571839012041000  0.6049481550428621  0.2539040358826170
  0.4592984982556804  0.6103173975229788  0.4789469268538899
  0.4765373868099134  0.0083074599845899  0.1835139713662036
  0.4574784174995761  0.0113176631129766  0.4094590536922800
  0.4765373868099134  0.5083074599845900  0.1835139713662036
  0.4574784174995761  0.5113176631129769  0.4094590536922800
  0.4517390949477629  0.2595932296827632  0.2975127537247851
  0.4859211983582126  0.2640720097534022  0.5230189024907690
  0.4517390949477629  0.7595932296827635  0.2975127537247851
  0.4859211983582126  0.7640720097534021  0.5230189024907690
  0.5425215527235384  0.5083754570054985  0.3200507861951190
  0.5234625834132017  0.5113856601338853  0.5459958685212027
  0.5425215527235384  0.0083754570054987  0.3200507861951190
  0.5234625834132017  0.0113856601338855  0.5459958685212027
  0.5140787718649030  0.2556211103645544  0.2064909373773316
  0.5482608752753521  0.2600998904351935  0.4319970861433297
  0.5140787718649030  0.7556211103645546  0.2064909373773316
  0.5482608752753522  0.7600998904351931  0.4319970861433297
 
  0.00000000E+00  0.00000000E+00  0.00000000E+00
  0.00000000E+00  0.00000000E+00  0.00000000E+00
  0.00000000E+00  0.00000000E+00  0.00000000E+00
  0.00000000E+00  0.00000000E+00  0.00000000E+00
  0.00000000E+00  0.00000000E+00  0.00000000E+00
  0.00000000E+00  0.00000000E+00  0.00000000E+00
  0.00000000E+00  0.00000000E+00  0.00000000E+00
  0.00000000E+00  0.00000000E+00  0.00000000E+00
  0.00000000E+00  0.00000000E+00  0.00000000E+00
  0.00000000E+00  0.00000000E+00  0.00000000E+00
  0.00000000E+00  0.00000000E+00  0.00000000E+00
  0.00000000E+00  0.00000000E+00  0.00000000E+00
  0.00000000E+00  0.00000000E+00  0.00000000E+00
  0.00000000E+00  0.00000000E+00  0.00000000E+00
  0.00000000E+00  0.00000000E+00  0.00000000E+00
  0.00000000E+00  0.00000000E+00  0.00000000E+00
  0.00000000E+00  0.00000000E+00  0.00000000E+00
  0.00000000E+00  0.00000000E+00  0.00000000E+00
  0.00000000E+00  0.00000000E+00  0.00000000E+00
  0.00000000E+00  0.00000000E+00  0.00000000E+00
  0.00000000E+00  0.00000000E+00  0.00000000E+00
  0.00000000E+00  0.00000000E+00  0.00000000E+00
  0.00000000E+00  0.00000000E+00  0.00000000E+00
  0.00000000E+00  0.00000000E+00  0.00000000E+00
  0.00000000E+00  0.00000000E+00  0.00000000E+00
  0.00000000E+00  0.00000000E+00  0.00000000E+00
  0.00000000E+00  0.00000000E+00  0.00000000E+00
  0.00000000E+00  0.00000000E+00  0.00000000E+00
  0.00000000E+00  0.00000000E+00  0.00000000E+00
  0.00000000E+00  0.00000000E+00  0.00000000E+00
  0.00000000E+00  0.00000000E+00  0.00000000E+00
  0.00000000E+00  0.00000000E+00  0.00000000E+00
  0.00000000E+00  0.00000000E+00  0.00000000E+00
  0.00000000E+00  0.00000000E+00  0.00000000E+00
  0.00000000E+00  0.00000000E+00  0.00000000E+00
  0.00000000E+00  0.00000000E+00  0.00000000E+00
  0.00000000E+00  0.00000000E+00  0.00000000E+00
  0.00000000E+00  0.00000000E+00  0.00000000E+00
  0.00000000E+00  0.00000000E+00  0.00000000E+00
  0.00000000E+00  0.00000000E+00  0.00000000E+00
  0.00000000E+00  0.00000000E+00  0.00000000E+00
  0.00000000E+00  0.00000000E+00  0.00000000E+00
  0.00000000E+00  0.00000000E+00  0.00000000E+00
  0.00000000E+00  0.00000000E+00  0.00000000E+00
  0.00000000E+00  0.00000000E+00  0.00000000E+00
  0.00000000E+00  0.00000000E+00  0.00000000E+00
  0.00000000E+00  0.00000000E+00  0.00000000E+00
  0.00000000E+00  0.00000000E+00  0.00000000E+00
  0.00000000E+00  0.00000000E+00  0.00000000E+00
  0.00000000E+00  0.00000000E+00  0.00000000E+00
  0.00000000E+00  0.00000000E+00  0.00000000E+00
  0.00000000E+00  0.00000000E+00  0.00000000E+00
  0.00000000E+00  0.00000000E+00  0.00000000E+00
  0.00000000E+00  0.00000000E+00  0.00000000E+00
  0.00000000E+00  0.00000000E+00  0.00000000E+00
  0.00000000E+00  0.00000000E+00  0.00000000E+00
  0.00000000E+00  0.00000000E+00  0.00000000E+00
  0.00000000E+00  0.00000000E+00  0.00000000E+00
  0.00000000E+00  0.00000000E+00  0.00000000E+00
  0.00000000E+00  0.00000000E+00  0.00000000E+00
  0.00000000E+00  0.00000000E+00  0.00000000E+00
  0.00000000E+00  0.00000000E+00  0.00000000E+00
  0.00000000E+00  0.00000000E+00  0.00000000E+00
  0.00000000E+00  0.00000000E+00  0.00000000E+00
  0.00000000E+00  0.00000000E+00  0.00000000E+00
  0.00000000E+00  0.00000000E+00  0.00000000E+00
  0.00000000E+00  0.00000000E+00  0.00000000E+00
  0.00000000E+00  0.00000000E+00  0.00000000E+00
  0.00000000E+00  0.00000000E+00  0.00000000E+00
  0.00000000E+00  0.00000000E+00  0.00000000E+00
  0.00000000E+00  0.00000000E+00  0.00000000E+00
  0.00000000E+00  0.00000000E+00  0.00000000E+00
  0.00000000E+00  0.00000000E+00  0.00000000E+00
  0.00000000E+00  0.00000000E+00  0.00000000E+00
  0.00000000E+00  0.00000000E+00  0.00000000E+00
  0.00000000E+00  0.00000000E+00  0.00000000E+00
  0.00000000E+00  0.00000000E+00  0.00000000E+00
  0.00000000E+00  0.00000000E+00  0.00000000E+00
  0.00000000E+00  0.00000000E+00  0.00000000E+00
  0.00000000E+00  0.00000000E+00  0.00000000E+00
  0.00000000E+00  0.00000000E+00  0.00000000E+00
  0.00000000E+00  0.00000000E+00  0.00000000E+00
  0.00000000E+00  0.00000000E+00  0.00000000E+00
  0.00000000E+00  0.00000000E+00  0.00000000E+00
  0.00000000E+00  0.00000000E+00  0.00000000E+00
  0.00000000E+00  0.00000000E+00  0.00000000E+00
  0.00000000E+00  0.00000000E+00  0.00000000E+00
  0.00000000E+00  0.00000000E+00  0.00000000E+00
  0.00000000E+00  0.00000000E+00  0.00000000E+00
  0.00000000E+00  0.00000000E+00  0.00000000E+00
  0.00000000E+00  0.00000000E+00  0.00000000E+00
  0.00000000E+00  0.00000000E+00  0.00000000E+00
  0.00000000E+00  0.00000000E+00  0.00000000E+00
  0.00000000E+00  0.00000000E+00  0.00000000E+00
  0.00000000E+00  0.00000000E+00  0.00000000E+00
  0.00000000E+00  0.00000000E+00  0.00000000E+00
  0.00000000E+00  0.00000000E+00  0.00000000E+00
  0.00000000E+00  0.00000000E+00  0.00000000E+00
  0.00000000E+00  0.00000000E+00  0.00000000E+00
  0.00000000E+00  0.00000000E+00  0.00000000E+00
  0.00000000E+00  0.00000000E+00  0.00000000E+00
  0.00000000E+00  0.00000000E+00  0.00000000E+00
  0.00000000E+00  0.00000000E+00  0.00000000E+00
  0.00000000E+00  0.00000000E+00  0.00000000E+00
  0.00000000E+00  0.00000000E+00  0.00000000E+00
  0.00000000E+00  0.00000000E+00  0.00000000E+00
  0.00000000E+00  0.00000000E+00  0.00000000E+00
  0.00000000E+00  0.00000000E+00  0.00000000E+00
  0.00000000E+00  0.00000000E+00  0.00000000E+00
  0.00000000E+00  0.00000000E+00  0.00000000E+00
  0.00000000E+00  0.00000000E+00  0.00000000E+00
  0.00000000E+00  0.00000000E+00  0.00000000E+00
  0.00000000E+00  0.00000000E+00  0.00000000E+00
  0.00000000E+00  0.00000000E+00  0.00000000E+00
  0.00000000E+00  0.00000000E+00  0.00000000E+00
  0.00000000E+00  0.00000000E+00  0.00000000E+00
  0.00000000E+00  0.00000000E+00  0.00000000E+00
  0.00000000E+00  0.00000000E+00  0.00000000E+00
  0.00000000E+00  0.00000000E+00  0.00000000E+00
  0.00000000E+00  0.00000000E+00  0.00000000E+00
  0.00000000E+00  0.00000000E+00  0.00000000E+00
  0.00000000E+00  0.00000000E+00  0.00000000E+00
  0.00000000E+00  0.00000000E+00  0.00000000E+00
  0.00000000E+00  0.00000000E+00  0.00000000E+00
  0.00000000E+00  0.00000000E+00  0.00000000E+00
  0.00000000E+00  0.00000000E+00  0.00000000E+00
  0.00000000E+00  0.00000000E+00  0.00000000E+00
  0.00000000E+00  0.00000000E+00  0.00000000E+00
  0.00000000E+00  0.00000000E+00  0.00000000E+00
  0.00000000E+00  0.00000000E+00  0.00000000E+00
  0.00000000E+00  0.00000000E+00  0.00000000E+00
  0.00000000E+00  0.00000000E+00  0.00000000E+00
  0.00000000E+00  0.00000000E+00  0.00000000E+00
  0.00000000E+00  0.00000000E+00  0.00000000E+00
  0.00000000E+00  0.00000000E+00  0.00000000E+00
  0.00000000E+00  0.00000000E+00  0.00000000E+00
  0.00000000E+00  0.00000000E+00  0.00000000E+00
  0.00000000E+00  0.00000000E+00  0.00000000E+00
  0.00000000E+00  0.00000000E+00  0.00000000E+00
  0.00000000E+00  0.00000000E+00  0.00000000E+00
  0.00000000E+00  0.00000000E+00  0.00000000E+00
  0.00000000E+00  0.00000000E+00  0.00000000E+00
  0.00000000E+00  0.00000000E+00  0.00000000E+00
  0.00000000E+00  0.00000000E+00  0.00000000E+00
