This file is generated by VASPKIT code
 1.000000
   12.6406764983999995    0.0000000000000000    0.0000000000000000
    0.0000000000000016   25.2016296386417515    0.0000000000000000
    0.0000000000000024    1.8348124745969625   51.7578901711374471
   Cs   Pb   I 
    24    32    88
Direct
    0.2500000000316439    0.4996800679138568    0.2380463549978216     Cs1
    0.2500000000316440    0.5062444412918882    0.4812163016236146     Cs2
    0.2500000000316440    0.9996800679138568    0.2380463549978216     Cs3
    0.2500000000316440    1.0062444412918881    0.4812163016236146     Cs4
    0.2500000000316439    0.2529622546106825    0.3596313283057061     Cs5
    0.2500000000316439    0.7529622546106824    0.3596313283057061     Cs6
    0.7500000000158218    0.0134486844031356    0.2482935373403470     Cs7
    0.7500000000158218    0.0200130577811669    0.4914634839661401     Cs8
    0.7500000000158217    0.5134486844031355    0.2482935373403470     Cs9
    0.7500000000158217    0.5200130577811668    0.4914634839661401    Cs10
    0.7500000000158218    0.2667308655469718    0.3698785115614612    Cs11
    0.7500000000158219    0.7667308655469717    0.3698785115614612    Cs12
    0.7500000000158218    0.0204701208089457    0.3680357659865386    Cs13
    0.7500000000158217    0.5204701208089457    0.3680357659865386    Cs14
    0.7500000000158218    0.2671879415803223    0.2464507926625269    Cs15
    0.7500000000158218    0.2737523149583536    0.4896207392883200    Cs16
    0.7500000000158218    0.7671879415803223    0.2464507926625269    Cs17
    0.7500000000158219    0.7737523149583535    0.4896207392883200    Cs18
    0.2500000000316440    0.4992229918801415    0.3614740738832474    Cs19
    0.2500000000316440    0.9992229918801416    0.3614740738832474    Cs20
    0.2500000000316439    0.2459408051595992    0.2398891005797852    Cs21
    0.2500000000316439    0.2525051785376305    0.4830590472055782    Cs22
    0.2500000000316439    0.7459408051595990    0.2398891005797852    Cs23
    0.2500000000316439    0.7525051785376304    0.4830590472055782    Cs24
    0.0000000000000000    0.3832054667302320    0.3039624332728871     Pb1
    0.0000000000000000    0.3897698401082633    0.5471323798986801     Pb2
    0.0000000000000000    0.8832054667302320    0.3039624332728871     Pb3
    0.0000000000000000    0.8897698401082633    0.5471323798986801     Pb4
    0.0000000000000000    0.1299232800493910    0.1823774599684872     Pb5
    0.0000000000000000    0.1364876534274224    0.4255474065942801     Pb6
    0.0000000000000000    0.6299232800493909    0.1823774599684872     Pb7
    0.0000000000000000    0.6364876534274222    0.4255474065942801     Pb8
    0.0000000000000000    0.1332054667382244    0.3039624332746294     Pb9
    0.0000000000000000    0.1397698401162557    0.5471323799004224    Pb10
    0.0000000000000000    0.6332054667382244    0.3039624332746294    Pb11
    0.0000000000000000    0.6397698401162557    0.5471323799004224    Pb12
    0.0000000000000000    0.3799232800413987    0.1823774599667449    Pb13
    0.0000000000000000    0.3864876534194300    0.4255474065925380    Pb14
    0.0000000000000000    0.8799232800413987    0.1823774599667449    Pb15
    0.0000000000000000    0.8864876534194300    0.4255474065925380    Pb16
    0.4999999999841780    0.3832054667302320    0.3039624332728871    Pb17
    0.4999999999841780    0.3897698401082633    0.5471323798986801    Pb18
    0.4999999999841780    0.8832054667302320    0.3039624332728871    Pb19
    0.4999999999841780    0.8897698401082633    0.5471323798986801    Pb20
    0.4999999999841780    0.1299232800493910    0.1823774599684872    Pb21
    0.4999999999841780    0.1364876534274224    0.4255474065942801    Pb22
    0.4999999999841780    0.6299232800493909    0.1823774599684872    Pb23
    0.4999999999841780    0.6364876534274222    0.4255474065942801    Pb24
    0.4999999999841780    0.1332054667382244    0.3039624332746294    Pb25
    0.4999999999841780    0.1397698401162557    0.5471323799004224    Pb26
    0.4999999999841780    0.6332054667382244    0.3039624332746294    Pb27
    0.4999999999841780    0.6397698401162557    0.5471323799004224    Pb28
    0.4999999999841782    0.3799232800413987    0.1823774599667449    Pb29
    0.4999999999841782    0.3864876534194300    0.4255474065925380    Pb30
    0.4999999999841782    0.8799232800413987    0.1823774599667449    Pb31
    0.4999999999841782    0.8864876534194300    0.4255474065925380    Pb32
    0.2500000000316439    0.1223133640101714    0.3110897415088317      I1
    0.2500000000316439    0.1288777373882027    0.5542596881346247      I2
    0.2500000000316439    0.6223133640101712    0.3110897415088317      I3
    0.2500000000316439    0.6288777373882026    0.5542596881346247      I4
    0.2500000000316437    0.3690311847819126    0.1895047681983285      I5
    0.2500000000316439    0.3755955581599439    0.4326747148241215      I6
    0.2500000000316438    0.8690311847819125    0.1895047681983285      I7
    0.2500000000316439    0.8755955581599438    0.4326747148241215      I8
    0.7500000000158218    0.3908153753014056    0.1752501517544593      I9
    0.7500000000158218    0.3973797486794369    0.4184200983802522     I10
    0.7500000000158218    0.8908153753014056    0.1752501517544593     I11
    0.7500000000158219    0.8973797486794369    0.4184200983802522     I12
    0.7500000000158219    0.1440975619982314    0.2968351250623437     I13
    0.7500000000158218    0.1506619353762627    0.5400050716881367     I14
    0.7500000000158220    0.6440975619982314    0.2968351250623437     I15
    0.7500000000158219    0.6506619353762628    0.5400050716881367     I16
    0.7500000000158218    0.1154138115610755    0.1877682930458880     I17
    0.7500000000158218    0.1219781849391068    0.4309382396716809     I18
    0.7500000000158218    0.6154138115610754    0.1877682930458880     I19
    0.7500000000158219    0.6219781849391067    0.4309382396716809     I20
    0.7500000000158218    0.3686959982816178    0.3093532663493501     I21
    0.7500000000158218    0.3752603716596491    0.5525232129751431     I22
    0.7500000000158219    0.8686959982816178    0.3093532663493501     I23
    0.7500000000158219    0.8752603716596491    0.5525232129751431     I24
    0.2500000000316438    0.3977149350814287    0.2985715965877067     I25
    0.2500000000316438    0.4042793084594600    0.5417415432134997     I26
    0.2500000000316438    0.8977149350814289    0.2985715965877067     I27
    0.2500000000316438    0.9042793084594601    0.5417415432134997     I28
    0.2500000000316438    0.1444327484980052    0.1769866268920242     I29
    0.2500000000316439    0.1509971218760364    0.4201565735178171     I30
    0.2500000000316438    0.6444327484980052    0.1769866268920242     I31
    0.2500000000316438    0.6509971218760364    0.4201565735178171     I32
    0.0259249992705280    0.3616733575839474    0.3648215491324940     I33
    0.0259249992705280    0.8616733575839473    0.3648215491324940     I34
    0.0259249992705280    0.1083911709027417    0.2432365758145856     I35
    0.0259249992705280    0.1149555442807730    0.4864065224403785     I36
    0.0259249992705280    0.6083911709027416    0.2432365758145856     I37
    0.0259249992705280    0.6149555442807729    0.4864065224403785     I38
    0.9740750193677150    0.1580197625742280    0.3646882907539713     I39
    0.9740750193677150    0.6580197625742280    0.3646882907539713     I40
    0.9740750193677149    0.4047375758774023    0.2431033174460868     I41
    0.9740750193677148    0.4113019492554336    0.4862732640718798     I42
    0.9740750193677149    0.9047375758774021    0.2431033174460868     I43
    0.9740750193677149    0.9113019492554335    0.4862732640718798     I44
    0.9740750193677148    0.5083727241554500    0.3152333608721509     I45
    0.9740750193677148    0.5149370975334813    0.5584033074979439     I46
    0.9740750193677149    1.0083727241554501    0.3152333608721509     I47
    0.9740750193677149    1.0149370975334813    0.5584033074979439     I48
    0.9740750193677150    0.2550905374740880    0.1936483875484530     I49
    0.9740750193677150    0.2616549108521193    0.4368183341742461     I50
    0.9740750193677150    0.7550905374740881    0.1936483875484530     I51
    0.9740750193677150    0.7616549108521193    0.4368183341742461     I52
    0.0259249992705280    0.0047560225849926    0.1711065323894591     I53
    0.0259249992705280    0.0113203959630240    0.4142764790152521     I54
    0.0259249992705280    0.5047560225849925    0.1711065323894591     I55
    0.0259249992705280    0.5113203959630239    0.4142764790152521     I56
    0.0259249992705280    0.2580382092658336    0.2926915056938592     I57
    0.0259249992705280    0.2646025826438649    0.5358614523196520     I58
    0.0259249992705280    0.7580382092658338    0.2926915056938592     I59
    0.0259249992705280    0.7646025826438650    0.5358614523196520     I60
    0.5259249806639287    0.1580197625742280    0.3646882907539713     I61
    0.5259249806639287    0.6580197625742280    0.3646882907539713     I62
    0.5259249806639289    0.4047375758774023    0.2431033174460868     I63
    0.5259249806639288    0.4113019492554336    0.4862732640718798     I64
    0.5259249806639289    0.9047375758774021    0.2431033174460868     I65
    0.5259249806639288    0.9113019492554335    0.4862732640718798     I66
    0.4740749895591838    0.3616733575839474    0.3648215491324940     I67
    0.4740749895591838    0.8616733575839473    0.3648215491324940     I68
    0.4740749895591838    0.1083911709027417    0.2432365758145856     I69
    0.4740749895591838    0.1149555442807730    0.4864065224403785     I70
    0.4740749895591838    0.6083911709027416    0.2432365758145856     I71
    0.4740749895591838    0.6149555442807729    0.4864065224403785     I72
    0.4740749895591838    0.0047560225849926    0.1711065323894591     I73
    0.4740749895591839    0.0113203959630240    0.4142764790152521     I74
    0.4740749895591838    0.5047560225849925    0.1711065323894591     I75
    0.4740749895591839    0.5113203959630239    0.4142764790152521     I76
    0.4740749895591838    0.2580382092658336    0.2926915056938592     I77
    0.4740749895591838    0.2646025826438649    0.5358614523196520     I78
    0.4740749895591838    0.7580382092658338    0.2926915056938592     I79
    0.4740749895591838    0.7646025826438650    0.5358614523196520     I80
    0.5259249806639286    0.5083727241554500    0.3152333608721509     I81
    0.5259249806639286    0.5149370975334813    0.5584033074979439     I82
    0.5259249806639286    1.0083727241554501    0.3152333608721509     I83
    0.5259249806639287    1.0149370975334813    0.5584033074979439     I84
    0.5259249806639288    0.2550905374740880    0.1936483875484530     I85
    0.5259249806639288    0.2616549108521193    0.4368183341742461     I86
    0.5259249806639288    0.7550905374740881    0.1936483875484530     I87
    0.5259249806639288    0.7616549108521193    0.4368183341742461     I88
