This file is generated by VASPKIT code  
   1.00000000000000     
    12.6406764983999995    0.0000000000000000    0.0000000000000000
     0.0000000000000000   18.2475891113000017    0.0000000000000000
     0.0000000000000000    0.0000000000000000   50.0000000000000000
   Cs   Pb   I 
    24    20    68
Direct
  0.2500000000316405  0.4596422669830982  0.6889777525547154
  0.2500000000316405  0.9768909633817795  0.6871663750646432
  0.2500000000316405  0.4587779864921740  0.3416649755895740
  0.2500000000316405  0.9972792802776294  0.3440706648691102
  0.2500000000316405  0.4658466837325477  0.5177734355711293
  0.2500000000316405  0.9659360352337990  0.5187612305752390
  0.7500000595854175  0.0341532920642562  0.5251702208688728
  0.7500000595854175  0.5340639051446311  0.5241824258647630
  0.7500000595854175  0.0412219893046300  0.7012786808504280
  0.7500000595854175  0.5027206601008007  0.6988729915708914
  0.7500000595854175  0.0403577088137060  0.3539658442852886
  0.7500000595854175  0.5231089769966506  0.3557772217753610
  0.7500000595854175  0.2847518747426056  0.6050133159694437
  0.7500000595854175  0.7828521838633127  0.6060922401518728
  0.7500000595854175  0.7341384399847040  0.2755126930297179
  0.7500000595854175  0.7737527163564795  0.7628277924511470
  0.7500000595854175  0.2830502814059825  0.4283003510682895
  0.7500000595854175  0.7808014241040314  0.4291815330725610
  0.2500000000316405  0.2169497036523197  0.6146433053717127
  0.2500000000316405  0.7191985758987042  0.6137621233674412
  0.2500000000316405  0.7262472836462561  0.2801158639888480
  0.2500000000316405  0.7658615600180316  0.7674309634102773
  0.2500000000316405  0.2152481103156965  0.4379303404905526
  0.2500000000316405  0.7171478161394229  0.4368514163081245
 -0.0025476199312949  0.0004157779740573  0.6088559252050948
  0.0009428404977048  0.4987326430010413  0.6087423237440931
 -0.0009428404977048  0.0012673570181358  0.4342013028959100
  0.0025476199312949  0.4995842220451204  0.4340877014349086
  0.0000000000000000  0.2500000000095923  0.5214717984200021
  0.0000000000000000  0.7499999999739657  0.5214717984200021
 -0.0034515405706167  0.2567402675166056  0.7017627050626789
 -0.0016143837844794  0.7487178084202825  0.6977621394615910
  0.0034515405706167  0.2432597325025792  0.3411810109773214
  0.0016143837844794  0.7512821915276490  0.3451815765784088
  0.5025476199154711  0.0004157779740573  0.6088559252050948
  0.4990571594864712  0.4987326430010413  0.6087423237440931
  0.5009428404818806  0.0012673570181358  0.4342013028959100
  0.4974523800528811  0.4995842220451204  0.4340877014349086
  0.4999999999841762  0.2500000000095923  0.5214717984200021
  0.4999999999841762  0.7499999999739657  0.5214717984200021
  0.5034515405547934  0.2567402675166056  0.7017627050626789
  0.5016143837686560  0.7487178084202825  0.6977621394615910
  0.4965484594135596  0.2432597325025792  0.3411810109773214
  0.4983856161996971  0.7512821915276490  0.3451815765784088
  0.2500000000316405  0.2558460537711427  0.5361916071728074
  0.2500000000316405  0.7560012537425147  0.5358913867918930
  0.2500000000316405  0.2423147419866259  0.6970562094268314
  0.2500000000316405  0.7597763699677600  0.6941330126278820
  0.2500000000316405  0.2386644034456312  0.3576871804490849
  0.2500000000316405  0.7726706843453892  0.3560030661887261
  0.7500000595854175  0.2613355816674685  0.6852564759909103
  0.7500000595854175  0.7273293156573535  0.6869405902512691
  0.7500000595854175  0.2576852431264737  0.3458874768131698
  0.7500000595854175  0.7402236300349827  0.3488106736121190
  0.7500000595854175  0.2441539313419567  0.5067520492871964
  0.7500000595854175  0.7439987462602280  0.5070522696681109
  0.7500000595854175  0.4969220167564771  0.6208802787869844
  0.7500000595854175  0.9948085474679196  0.6224148235080234
  0.7500000595854175  0.4956268052484819  0.4453189609602995
  0.7500000595854175  0.9914706995085464  0.4480366575793800
  0.2500000000316405  0.0043731982780128  0.5976246954997047
  0.2500000000316405  0.5085294196880245  0.5949069988806235
  0.2500000000316405  0.0030779867700174  0.4220634074530097
  0.2500000000316405  0.5051915717286513  0.4205288627319705
  0.0229965710623248  0.1008238575538795  0.6594387030070830
  0.0336569959651089  0.5955458589451462  0.6607011508877878
  0.0037350480709004  0.1017477428638073  0.3111153397629615
  0.0098143926440897  0.6127476249359046  0.3081984197786001
  0.0388554773259488  0.1018405956670866  0.4876394473885501
  0.0380182798824439  0.6024097334371418  0.4875075073944140
  0.9611444816635927  0.3981594042972939  0.5553042090514451
  0.9619816791070970  0.8975902665655938  0.5554361490455811
  0.9962649109186407  0.3982522571005731  0.7318282570770427
  0.9901855663454512  0.8872523750668310  0.7347451770614043
  0.9770033879272160  0.3991761424105014  0.3835049832529203
  0.9663429630244319  0.9044541410575894  0.3822425353722152
  0.9605291624486642  0.1492758067057858  0.5731997204393140
  0.9614235108362753  0.6500211176382510  0.5736229235819873
  0.9648023161099900  0.1488928036959125  0.7452346792157398
  0.9961260072628039  0.6521265660933898  0.7495571778265196
  0.9709662004366837  0.1465961679227848  0.4010818722476564
  0.9778687341165916  0.6455724340018868  0.4002452309254133
  0.0290337585528572  0.3534038320415888  0.6418617543923464
  0.0221312248729495  0.8544275660008559  0.6426983957145895
  0.0351976428795505  0.3511071962684609  0.2977090070442557
  0.0038739517267374  0.8478734339093529  0.2933865084334760
  0.0394707965408769  0.3507241932585876  0.4697439360006881
  0.0385764481532659  0.8499788823644917  0.4693207328580151
  0.5388554587193494  0.3981594042972939  0.5553042090514451
  0.5380182612758451  0.8975902665655938  0.5554361490455811
  0.5037350294643014  0.3982522571005731  0.7318282570770427
  0.5098143740374909  0.8872523750668310  0.7347451770614043
  0.5229965524557261  0.3991761424105014  0.3835049832529203
  0.5336569773585101  0.9044541410575894  0.3822425353722152
  0.4770034475917386  0.1008238575538795  0.6594387030070830
  0.4663430226889543  0.5955458589451462  0.6607011508877878
  0.4962649705831628  0.1017477428638073  0.3111153397629615
  0.4901856260099734  0.6127476249359046  0.3081984197786001
  0.4611445413281143  0.1018405956670866  0.4876394473885501
  0.4619817387716195  0.6024097334371418  0.4875075073944140
  0.4709662601012061  0.3534038320415888  0.6418617543923464
  0.4778687937811138  0.8544275660008559  0.6426983957145895
  0.4648023757745126  0.3511071962684609  0.2977090070442557
  0.4961260669273258  0.8478734339093529  0.2933865084334760
  0.4605292221131864  0.3507241932585876  0.4697439360006881
  0.4614235705007972  0.8499788823644917  0.4693207328580151
  0.5394707779342779  0.1492758067057858  0.5731997204393140
  0.5385764295466667  0.6500211176382510  0.5736229235819873
  0.5351976242729520  0.1488928036959125  0.7452346792157398
  0.5038739331201382  0.6521265660933898  0.7495571778265196
  0.5290337399462585  0.1465961679227848  0.4010818722476564
  0.5221312062663505  0.6455724340018868  0.4002452309254133
 
  0.00000000E+00  0.00000000E+00  0.00000000E+00
  0.00000000E+00  0.00000000E+00  0.00000000E+00
  0.00000000E+00  0.00000000E+00  0.00000000E+00
  0.00000000E+00  0.00000000E+00  0.00000000E+00
  0.00000000E+00  0.00000000E+00  0.00000000E+00
  0.00000000E+00  0.00000000E+00  0.00000000E+00
  0.00000000E+00  0.00000000E+00  0.00000000E+00
  0.00000000E+00  0.00000000E+00  0.00000000E+00
  0.00000000E+00  0.00000000E+00  0.00000000E+00
  0.00000000E+00  0.00000000E+00  0.00000000E+00
  0.00000000E+00  0.00000000E+00  0.00000000E+00
  0.00000000E+00  0.00000000E+00  0.00000000E+00
  0.00000000E+00  0.00000000E+00  0.00000000E+00
  0.00000000E+00  0.00000000E+00  0.00000000E+00
  0.00000000E+00  0.00000000E+00  0.00000000E+00
  0.00000000E+00  0.00000000E+00  0.00000000E+00
  0.00000000E+00  0.00000000E+00  0.00000000E+00
  0.00000000E+00  0.00000000E+00  0.00000000E+00
  0.00000000E+00  0.00000000E+00  0.00000000E+00
  0.00000000E+00  0.00000000E+00  0.00000000E+00
  0.00000000E+00  0.00000000E+00  0.00000000E+00
  0.00000000E+00  0.00000000E+00  0.00000000E+00
  0.00000000E+00  0.00000000E+00  0.00000000E+00
  0.00000000E+00  0.00000000E+00  0.00000000E+00
  0.00000000E+00  0.00000000E+00  0.00000000E+00
  0.00000000E+00  0.00000000E+00  0.00000000E+00
  0.00000000E+00  0.00000000E+00  0.00000000E+00
  0.00000000E+00  0.00000000E+00  0.00000000E+00
  0.00000000E+00  0.00000000E+00  0.00000000E+00
  0.00000000E+00  0.00000000E+00  0.00000000E+00
  0.00000000E+00  0.00000000E+00  0.00000000E+00
  0.00000000E+00  0.00000000E+00  0.00000000E+00
  0.00000000E+00  0.00000000E+00  0.00000000E+00
  0.00000000E+00  0.00000000E+00  0.00000000E+00
  0.00000000E+00  0.00000000E+00  0.00000000E+00
  0.00000000E+00  0.00000000E+00  0.00000000E+00
  0.00000000E+00  0.00000000E+00  0.00000000E+00
  0.00000000E+00  0.00000000E+00  0.00000000E+00
  0.00000000E+00  0.00000000E+00  0.00000000E+00
  0.00000000E+00  0.00000000E+00  0.00000000E+00
  0.00000000E+00  0.00000000E+00  0.00000000E+00
  0.00000000E+00  0.00000000E+00  0.00000000E+00
  0.00000000E+00  0.00000000E+00  0.00000000E+00
  0.00000000E+00  0.00000000E+00  0.00000000E+00
  0.00000000E+00  0.00000000E+00  0.00000000E+00
  0.00000000E+00  0.00000000E+00  0.00000000E+00
  0.00000000E+00  0.00000000E+00  0.00000000E+00
  0.00000000E+00  0.00000000E+00  0.00000000E+00
  0.00000000E+00  0.00000000E+00  0.00000000E+00
  0.00000000E+00  0.00000000E+00  0.00000000E+00
  0.00000000E+00  0.00000000E+00  0.00000000E+00
  0.00000000E+00  0.00000000E+00  0.00000000E+00
  0.00000000E+00  0.00000000E+00  0.00000000E+00
  0.00000000E+00  0.00000000E+00  0.00000000E+00
  0.00000000E+00  0.00000000E+00  0.00000000E+00
  0.00000000E+00  0.00000000E+00  0.00000000E+00
  0.00000000E+00  0.00000000E+00  0.00000000E+00
  0.00000000E+00  0.00000000E+00  0.00000000E+00
  0.00000000E+00  0.00000000E+00  0.00000000E+00
  0.00000000E+00  0.00000000E+00  0.00000000E+00
  0.00000000E+00  0.00000000E+00  0.00000000E+00
  0.00000000E+00  0.00000000E+00  0.00000000E+00
  0.00000000E+00  0.00000000E+00  0.00000000E+00
  0.00000000E+00  0.00000000E+00  0.00000000E+00
  0.00000000E+00  0.00000000E+00  0.00000000E+00
  0.00000000E+00  0.00000000E+00  0.00000000E+00
  0.00000000E+00  0.00000000E+00  0.00000000E+00
  0.00000000E+00  0.00000000E+00  0.00000000E+00
  0.00000000E+00  0.00000000E+00  0.00000000E+00
  0.00000000E+00  0.00000000E+00  0.00000000E+00
  0.00000000E+00  0.00000000E+00  0.00000000E+00
  0.00000000E+00  0.00000000E+00  0.00000000E+00
  0.00000000E+00  0.00000000E+00  0.00000000E+00
  0.00000000E+00  0.00000000E+00  0.00000000E+00
  0.00000000E+00  0.00000000E+00  0.00000000E+00
  0.00000000E+00  0.00000000E+00  0.00000000E+00
  0.00000000E+00  0.00000000E+00  0.00000000E+00
  0.00000000E+00  0.00000000E+00  0.00000000E+00
  0.00000000E+00  0.00000000E+00  0.00000000E+00
  0.00000000E+00  0.00000000E+00  0.00000000E+00
  0.00000000E+00  0.00000000E+00  0.00000000E+00
  0.00000000E+00  0.00000000E+00  0.00000000E+00
  0.00000000E+00  0.00000000E+00  0.00000000E+00
  0.00000000E+00  0.00000000E+00  0.00000000E+00
  0.00000000E+00  0.00000000E+00  0.00000000E+00
  0.00000000E+00  0.00000000E+00  0.00000000E+00
  0.00000000E+00  0.00000000E+00  0.00000000E+00
  0.00000000E+00  0.00000000E+00  0.00000000E+00
  0.00000000E+00  0.00000000E+00  0.00000000E+00
  0.00000000E+00  0.00000000E+00  0.00000000E+00
  0.00000000E+00  0.00000000E+00  0.00000000E+00
  0.00000000E+00  0.00000000E+00  0.00000000E+00
  0.00000000E+00  0.00000000E+00  0.00000000E+00
  0.00000000E+00  0.00000000E+00  0.00000000E+00
  0.00000000E+00  0.00000000E+00  0.00000000E+00
  0.00000000E+00  0.00000000E+00  0.00000000E+00
  0.00000000E+00  0.00000000E+00  0.00000000E+00
  0.00000000E+00  0.00000000E+00  0.00000000E+00
  0.00000000E+00  0.00000000E+00  0.00000000E+00
  0.00000000E+00  0.00000000E+00  0.00000000E+00
  0.00000000E+00  0.00000000E+00  0.00000000E+00
  0.00000000E+00  0.00000000E+00  0.00000000E+00
  0.00000000E+00  0.00000000E+00  0.00000000E+00
  0.00000000E+00  0.00000000E+00  0.00000000E+00
  0.00000000E+00  0.00000000E+00  0.00000000E+00
  0.00000000E+00  0.00000000E+00  0.00000000E+00
  0.00000000E+00  0.00000000E+00  0.00000000E+00
  0.00000000E+00  0.00000000E+00  0.00000000E+00
  0.00000000E+00  0.00000000E+00  0.00000000E+00
  0.00000000E+00  0.00000000E+00  0.00000000E+00
  0.00000000E+00  0.00000000E+00  0.00000000E+00
  0.00000000E+00  0.00000000E+00  0.00000000E+00
