This file is generated by VASPKIT code
1.0
       12.6406764984         0.0000000000         0.0000000000
        0.0000000000        18.2475891113         0.0000000000
        0.0000000000         0.0000000000        50.0000000000
   Cs   Pb    I
   24   20   68
Cartesian
     3.160169125         8.808457500        34.698924422
     3.160169125        17.932251512        34.698924422
     3.160169125         8.808457500        17.316532135
     3.160169125        17.932251512        17.316532135
     3.160169125         8.808457500        26.007729769
     3.160169125        17.932251512        26.007729769
     9.480508127         0.315336614        26.139453053
     9.480508127         9.439131067        26.139453053
     9.480508127         0.315336614        34.830650687
     9.480508127         9.439131067        34.830650687
     9.480508127         0.315336614        17.448255420
     9.480508127         9.439131067        17.448255420
     9.480508127         4.877233789        30.353328586
     9.480508127        14.001028345        30.353328586
     9.480508127        14.001028345        12.970933318
     9.480508127        14.001028345        39.044526219
     9.480508127         4.877233789        21.662130952
     9.480508127        14.001028345        21.662130952
     3.160169125         4.246560494        30.485051870
     3.160169125        13.370355322        30.485051870
     3.160169125        13.370355322        13.102656603
     3.160169125        13.370355322        39.176249504
     3.160169125         4.246560494        21.793854237
     3.160169125        13.370355322        21.793854237
     0.000000000         0.000000000        30.419188738
     0.000000000         9.123794556        30.419188738
     0.000000000         0.000000000        21.727992594
     0.000000000         9.123794556        21.727992594
     0.000000000         4.561897278        26.073589921
     0.000000000        13.685691833        26.073589921
     0.000000000         4.561897278        34.764790535
     0.000000000        13.685691833        34.764790535
     0.000000000         4.561897278        17.382395267
     0.000000000        13.685691833        17.382395267
     6.320338249         0.000000000        30.419188738
     6.320338249         9.123794556        30.419188738
     6.320338249         0.000000000        21.727992594
     6.320338249         9.123794556        21.727992594
     6.320338249         4.561897278        26.073589921
     6.320338249        13.685691833        26.073589921
     6.320338249         4.561897278        34.764790535
     6.320338249        13.685691833        34.764790535
     6.320338249         4.561897278        17.382395267
     6.320338249        13.685691833        17.382395267
     3.160169125         4.627050241        26.521006227
     3.160169125        13.750844796        26.521006227
     3.160169125         4.627050241        35.212203860
     3.160169125        13.750844796        35.212203860
     3.160169125         4.627050241        17.829808593
     3.160169125        13.750844796        17.829808593
     9.480508127         4.496744043        34.317374229
     9.480508127        13.620538871        34.317374229
     9.480508127         4.496744043        16.934980452
     9.480508127        13.620538871        16.934980452
     9.480508127         4.496744043        25.626176596
     9.480508127        13.620538871        25.626176596
     9.480508127         9.058641593        30.866605043
     9.480508127        18.182438324        30.866605043
     9.480508127         9.058641593        22.175407410
     9.480508127        18.182438324        22.175407410
     3.160169125         0.065153027        29.971775413
     3.160169125         9.188947518        29.971775413
     3.160169125         0.065153027        21.280579269
     3.160169125         9.188947518        21.280579269
     0.327709529         1.860560683        32.997208834
     0.327709529        10.984355783        32.997208834
     0.327709529         1.860560683        15.614813566
     0.327709529        10.984355783        15.614813566
     0.327709529         1.860560683        24.306011200
     0.327709529        10.984355783        24.306011200
    12.312966451         7.263233872        27.841171622
    12.312966451        16.387027884        27.841171622
    12.312966451         7.263233872        36.532366276
    12.312966451        16.387027884        36.532366276
    12.312966451         7.263233872        19.149975479
    12.312966451        16.387027884        19.149975479
    12.312966451         2.701336594        28.651610017
    12.312966451        11.825130606        28.651610017
    12.312966451         2.701336594        37.342807651
    12.312966451        11.825130606        37.342807651
    12.312966451         2.701336594        19.960410893
    12.312966451        11.825130606        19.960410893
     0.327709529         6.422457961        32.186770439
     0.327709529        15.546253061        32.186770439
     0.327709529         6.422457961        14.804376662
     0.327709529        15.546253061        14.804376662
     0.327709529         6.422457961        23.495572805
     0.327709529        15.546253061        23.495572805
     6.648047543         7.263233872        27.841171622
     6.648047543        16.387027884        27.841171622
     6.648047543         7.263233872        36.532366276
     6.648047543        16.387027884        36.532366276
     6.648047543         7.263233872        19.149975479
     6.648047543        16.387027884        19.149975479
     5.992628956         1.860560683        32.997208834
     5.992628956        10.984355783        32.997208834
     5.992628956         1.860560683        15.614813566
     5.992628956        10.984355783        15.614813566
     5.992628956         1.860560683        24.306011200
     5.992628956        10.984355783        24.306011200
     5.992628956         6.422457961        32.186770439
     5.992628956        15.546253061        32.186770439
     5.992628956         6.422457961        14.804376662
     5.992628956        15.546253061        14.804376662
     5.992628956         6.422457961        23.495572805
     5.992628956        15.546253061        23.495572805
     6.648047543         2.701336594        28.651610017
     6.648047543        11.825130606        28.651610017
     6.648047543         2.701336594        37.342807651
     6.648047543        11.825130606        37.342807651
     6.648047543         2.701336594        19.960410893
     6.648047543        11.825130606        19.960410893
