This file is generated by VASPKIT code  
   1.00000000000000     
    17.3823947905999994    0.0000000000000000    0.0000000000000000
     0.0000000000000000   18.2475891113000017    0.0000000000000000
     0.0000000000000000    0.0000000000000000   40.0000000000000000
   Cs   Pb   I 
    24    32    80
Direct
  0.4946208395289327  0.4686156652185621  0.3918897767031123
  0.4946208395289327  0.4686156652185621  0.7141694168968842
  0.4946208395289327  0.9686156652377466  0.3918897767031123
  0.4946208395289327  0.9686156652377466  0.7141694168968842
  0.9737283751340203  0.4666336061556742  0.3994345606246475
  0.9737283751340203  0.4666336061556742  0.7066246329753494
  0.9737283751340203  0.9666336061748592  0.3994345606246475
  0.9737283751340203  0.9666336061748592  0.7066246329753494
  0.0103249802250473  0.0388729779227875  0.5530295968000019
  0.0103249802250473  0.5388729741606486  0.5530295968000019
  0.5143564022404793  0.0335867521728859  0.5530295968000019
  0.5143564022404793  0.5335867484107468  0.5530295968000019
  0.2396750270437977  0.2888729741510560  0.5530295968000019
  0.2396750270437977  0.7888729741702337  0.5530295968000019
  0.7356435977451393  0.2835867484011546  0.5530295968000019
  0.7356435977451393  0.7835867484203320  0.5530295968000019
  0.2762716249091237  0.2166336061460891  0.3994345606246475
  0.2762716249091237  0.2166336061460891  0.7066246329753494
  0.2762716249091237  0.7166336061652668  0.3994345606246475
  0.2762716249091237  0.7166336061652668  0.7066246329753494
  0.7553791604566785  0.2186156652089767  0.3918897767031123
  0.7553791604566785  0.2186156652089767  0.7141694168968842
  0.7553791604566785  0.7186156652281542  0.3918897767031123
  0.7553791604566785  0.7186156652281542  0.7141694168968842
  0.2534645877852481 -0.0075226083312708  0.3204988196564763
  0.2497971083876278  0.0027608747163188  0.6313817221378205
  0.2534645877852481  0.4924773916879069  0.3204988196564763
  0.2497971083876278  0.5027608747354962  0.6313817221378205
  0.7420206167543095 -0.0027676561958953  0.3158652986283588
  0.7499782669398037  0.0003904436911817  0.6315743342342537
  0.7420206167543095  0.4972323438232824  0.3158652986283588
  0.7499782669398037  0.5003904437103593  0.6315743342342537
 -0.0034645877651112  0.2424773916783214  0.3204988196564763
  0.0002028916325089  0.2527608747259111  0.6313817221378205
 -0.0034645877651112  0.7424773916426944  0.3204988196564763
  0.0002028916325089  0.7527608746902844  0.6313817221378205
  0.5079793832313091  0.2472323438136970  0.3158652986283588
  0.5000217330458149  0.2503904437007741  0.6315743342342537
  0.5079793832313091  0.7472323437780706  0.3158652986283588
  0.5000217330458149  0.7503904436651473  0.6315743342342537
  0.2497971083876278  0.0027608747163188  0.4746774416871813
  0.2534645877852481 -0.0075226083312708  0.7855603739435272
  0.2497971083876278  0.5027608747354962  0.4746774416871813
  0.2534645877852481  0.4924773916879069  0.7855603739435272
  0.7499782669398037  0.0003904436911817  0.4744848295907479
  0.7420206167543095 -0.0027676561958953  0.7901938949716450
  0.7499782669398037  0.5003904437103593  0.4744848295907479
  0.7420206167543095  0.4972323438232824  0.7901938949716450
  0.0002028916325089  0.2527608747259111  0.4746774416871813
 -0.0034645877651112  0.2424773916783214  0.7855603739435272
  0.0002028916325089  0.7527608746902844  0.4746774416871813
 -0.0034645877651112  0.7424773916426944  0.7855603739435272
  0.5000217330458149  0.2503904437007741  0.4744848295907479
  0.5079793832313091  0.2472323438136970  0.7901938949716450
  0.5000217330458149  0.7503904436651473  0.4744848295907479
  0.5079793832313091  0.7472323437780706  0.7901938949716450
  0.0518299281900230  0.2590883150452136  0.3921163447027258
  0.0518299281900230  0.2590883150452136  0.7139428488972708
  0.0518299281900230  0.7590883150095937  0.3921163447027258
  0.0518299281900230  0.7590883150095937  0.7139428488972708
  0.5269539294878524  0.2506144544021111  0.3921752682479747
  0.5269539294878524  0.2506144544021111  0.7138839253520215
  0.5269539294878524  0.7506144543664915  0.3921752682479747
  0.5269539294878524  0.7506144543664915  0.7138839253520215
  0.4670728809137450  0.2462813800595451  0.5530295968000019
  0.4670728809137450  0.7462813800787297  0.5530295968000019
  0.9636469112172878  0.2502188699976290  0.5530295968000019
  0.9636469112172878  0.7502188700168135  0.5530295968000019
  0.2863530888258560  0.5002188700072212  0.5530295968000019
  0.2863530888258560  0.0002188699716016  0.5530295968000019
  0.7829271190718664  0.4962813800691374  0.5530295968000019
  0.7829271190718664  0.9962813800335178  0.5530295968000019
  0.1981700662497526  0.0090883180497222  0.3921163447027258
  0.1981700662497526  0.0090883180497222  0.7139428488972708
  0.1981700662497526  0.5090883150000014  0.3921163447027258
  0.1981700662497526  0.5090883150000014  0.7139428488972708
  0.7230460704977663  0.0006144574066196  0.3921752682479747
  0.7230460704977663  0.0006144574066196  0.7138839253520215
  0.7230460704977663  0.5006144543568992  0.3921752682479747
  0.7230460704977663  0.5006144543568992  0.7138839253520215
  0.3803263771327965  0.1054264479006013  0.3252875052377739
  0.4032731968697483  0.0983587858063960  0.6445808405007015
  0.3803263771327965  0.6054264181076223  0.3252875052377739
  0.4032731968697483  0.5983587560134171  0.6445808405007015
  0.9008969212488520  0.1049256663370072  0.3277933758657323
  0.8995823694058743  0.1060412488777337  0.6429412297499064
  0.9008969212488520  0.6049256365440289  0.3277933758657323
  0.8995823694058743  0.6060412190847547  0.6429412297499064
  0.0962031463531097  0.4044597458382543  0.6205956194629710
  0.0962031463531097  0.9044597756695952  0.6205956194629710
  0.5995849856454820  0.3966132535429343  0.3058849470206184
  0.5988942087224607  0.4001332718957990  0.6224314658140347
  0.5995849856454820  0.8966132833742749  0.3058849470206184
  0.5988942087224607  0.9001333017271400  0.6224314658140347
  0.1537968536094945  0.1544597458286620  0.6205956194629710
  0.1537968536094945  0.6544597756600029  0.6205956194629710
  0.6504150143976621  0.1466132535333421  0.3058849470206184
  0.6511057913206835  0.1501332718862068  0.6224314658140347
  0.6504150143976621  0.6466132833646826  0.3058849470206184
  0.6511057913206835  0.6501333017175477  0.6224314658140347
  0.3491030489364976  0.3549256663465924  0.3277933758657323
  0.3504176007794755  0.3560412488873189  0.6429412297499064
  0.3491030489364976  0.8549256365536212  0.3277933758657323
  0.3504176007794755  0.8560412190943471  0.6429412297499064
  0.8696736526530913  0.3554264479101863  0.3252875052377739
  0.8467268329161393  0.3483587858159811  0.6445808405007015
  0.8696736526530913  0.8554264181172146  0.3252875052377739
  0.8467268329161393  0.8483587560230095  0.6445808405007015
  0.0962031463531097  0.4044597458382543  0.4854635145370277
  0.0962031463531097  0.9044597756695952  0.4854635145370277
  0.5988942087224607  0.4001332718957990  0.4836276681859641
  0.5995849856454820  0.3966132535429343  0.8001742167793867
  0.5988942087224607  0.9001333017271400  0.4836276681859641
  0.5995849856454820  0.8966132833742749  0.8001742167793867
  0.4032731968697483  0.0983587858063960  0.4614783232993035
  0.3803263771327965  0.1054264479006013  0.7807716287872286
  0.4032731968697483  0.5983587560134171  0.4614783232993035
  0.3803263771327965  0.6054264181076223  0.7807716287872286
  0.8995823694058743  0.1060412488777337  0.4631179340500982
  0.9008969212488520  0.1049256663370073  0.7782657581592705
  0.8995823694058743  0.6060412190847547  0.4631179340500982
  0.9008969212488520  0.6049256365440289  0.7782657581592705
  0.3504176007794755  0.3560412488873189  0.4631179340500982
  0.3491030489364976  0.3549256663465924  0.7782657581592705
  0.3504176007794755  0.8560412190943471  0.4631179340500982
  0.3491030489364976  0.8549256365536212  0.7782657581592705
  0.8467268329161393  0.3483587858159811  0.4614783232993035
  0.8696736526530913  0.3554264479101863  0.7807716287872286
  0.8467268329161393  0.8483587560230095  0.4614783232993035
  0.8696736526530913  0.8554264181172146  0.7807716287872286
  0.1537968536094945  0.1544597458286620  0.4854635145370277
  0.1537968536094945  0.6544597756600029  0.4854635145370277
  0.6511057913206835  0.1501332718862068  0.4836276681859641
  0.6504150143976621  0.1466132535333421  0.8001742167793867
  0.6511057913206835  0.6501333017175477  0.4836276681859641
  0.6504150143976621  0.6466132833646826  0.8001742167793867
 
  0.00000000E+00  0.00000000E+00  0.00000000E+00
  0.00000000E+00  0.00000000E+00  0.00000000E+00
  0.00000000E+00  0.00000000E+00  0.00000000E+00
  0.00000000E+00  0.00000000E+00  0.00000000E+00
  0.00000000E+00  0.00000000E+00  0.00000000E+00
  0.00000000E+00  0.00000000E+00  0.00000000E+00
  0.00000000E+00  0.00000000E+00  0.00000000E+00
  0.00000000E+00  0.00000000E+00  0.00000000E+00
  0.00000000E+00  0.00000000E+00  0.00000000E+00
  0.00000000E+00  0.00000000E+00  0.00000000E+00
  0.00000000E+00  0.00000000E+00  0.00000000E+00
  0.00000000E+00  0.00000000E+00  0.00000000E+00
  0.00000000E+00  0.00000000E+00  0.00000000E+00
  0.00000000E+00  0.00000000E+00  0.00000000E+00
  0.00000000E+00  0.00000000E+00  0.00000000E+00
  0.00000000E+00  0.00000000E+00  0.00000000E+00
  0.00000000E+00  0.00000000E+00  0.00000000E+00
  0.00000000E+00  0.00000000E+00  0.00000000E+00
  0.00000000E+00  0.00000000E+00  0.00000000E+00
  0.00000000E+00  0.00000000E+00  0.00000000E+00
  0.00000000E+00  0.00000000E+00  0.00000000E+00
  0.00000000E+00  0.00000000E+00  0.00000000E+00
  0.00000000E+00  0.00000000E+00  0.00000000E+00
  0.00000000E+00  0.00000000E+00  0.00000000E+00
  0.00000000E+00  0.00000000E+00  0.00000000E+00
  0.00000000E+00  0.00000000E+00  0.00000000E+00
  0.00000000E+00  0.00000000E+00  0.00000000E+00
  0.00000000E+00  0.00000000E+00  0.00000000E+00
  0.00000000E+00  0.00000000E+00  0.00000000E+00
  0.00000000E+00  0.00000000E+00  0.00000000E+00
  0.00000000E+00  0.00000000E+00  0.00000000E+00
  0.00000000E+00  0.00000000E+00  0.00000000E+00
  0.00000000E+00  0.00000000E+00  0.00000000E+00
  0.00000000E+00  0.00000000E+00  0.00000000E+00
  0.00000000E+00  0.00000000E+00  0.00000000E+00
  0.00000000E+00  0.00000000E+00  0.00000000E+00
  0.00000000E+00  0.00000000E+00  0.00000000E+00
  0.00000000E+00  0.00000000E+00  0.00000000E+00
  0.00000000E+00  0.00000000E+00  0.00000000E+00
  0.00000000E+00  0.00000000E+00  0.00000000E+00
  0.00000000E+00  0.00000000E+00  0.00000000E+00
  0.00000000E+00  0.00000000E+00  0.00000000E+00
  0.00000000E+00  0.00000000E+00  0.00000000E+00
  0.00000000E+00  0.00000000E+00  0.00000000E+00
  0.00000000E+00  0.00000000E+00  0.00000000E+00
  0.00000000E+00  0.00000000E+00  0.00000000E+00
  0.00000000E+00  0.00000000E+00  0.00000000E+00
  0.00000000E+00  0.00000000E+00  0.00000000E+00
  0.00000000E+00  0.00000000E+00  0.00000000E+00
  0.00000000E+00  0.00000000E+00  0.00000000E+00
  0.00000000E+00  0.00000000E+00  0.00000000E+00
  0.00000000E+00  0.00000000E+00  0.00000000E+00
  0.00000000E+00  0.00000000E+00  0.00000000E+00
  0.00000000E+00  0.00000000E+00  0.00000000E+00
  0.00000000E+00  0.00000000E+00  0.00000000E+00
  0.00000000E+00  0.00000000E+00  0.00000000E+00
  0.00000000E+00  0.00000000E+00  0.00000000E+00
  0.00000000E+00  0.00000000E+00  0.00000000E+00
  0.00000000E+00  0.00000000E+00  0.00000000E+00
  0.00000000E+00  0.00000000E+00  0.00000000E+00
  0.00000000E+00  0.00000000E+00  0.00000000E+00
  0.00000000E+00  0.00000000E+00  0.00000000E+00
  0.00000000E+00  0.00000000E+00  0.00000000E+00
  0.00000000E+00  0.00000000E+00  0.00000000E+00
  0.00000000E+00  0.00000000E+00  0.00000000E+00
  0.00000000E+00  0.00000000E+00  0.00000000E+00
  0.00000000E+00  0.00000000E+00  0.00000000E+00
  0.00000000E+00  0.00000000E+00  0.00000000E+00
  0.00000000E+00  0.00000000E+00  0.00000000E+00
  0.00000000E+00  0.00000000E+00  0.00000000E+00
  0.00000000E+00  0.00000000E+00  0.00000000E+00
  0.00000000E+00  0.00000000E+00  0.00000000E+00
  0.00000000E+00  0.00000000E+00  0.00000000E+00
  0.00000000E+00  0.00000000E+00  0.00000000E+00
  0.00000000E+00  0.00000000E+00  0.00000000E+00
  0.00000000E+00  0.00000000E+00  0.00000000E+00
  0.00000000E+00  0.00000000E+00  0.00000000E+00
  0.00000000E+00  0.00000000E+00  0.00000000E+00
  0.00000000E+00  0.00000000E+00  0.00000000E+00
  0.00000000E+00  0.00000000E+00  0.00000000E+00
  0.00000000E+00  0.00000000E+00  0.00000000E+00
  0.00000000E+00  0.00000000E+00  0.00000000E+00
  0.00000000E+00  0.00000000E+00  0.00000000E+00
  0.00000000E+00  0.00000000E+00  0.00000000E+00
  0.00000000E+00  0.00000000E+00  0.00000000E+00
  0.00000000E+00  0.00000000E+00  0.00000000E+00
  0.00000000E+00  0.00000000E+00  0.00000000E+00
  0.00000000E+00  0.00000000E+00  0.00000000E+00
  0.00000000E+00  0.00000000E+00  0.00000000E+00
  0.00000000E+00  0.00000000E+00  0.00000000E+00
  0.00000000E+00  0.00000000E+00  0.00000000E+00
  0.00000000E+00  0.00000000E+00  0.00000000E+00
  0.00000000E+00  0.00000000E+00  0.00000000E+00
  0.00000000E+00  0.00000000E+00  0.00000000E+00
  0.00000000E+00  0.00000000E+00  0.00000000E+00
  0.00000000E+00  0.00000000E+00  0.00000000E+00
  0.00000000E+00  0.00000000E+00  0.00000000E+00
  0.00000000E+00  0.00000000E+00  0.00000000E+00
  0.00000000E+00  0.00000000E+00  0.00000000E+00
  0.00000000E+00  0.00000000E+00  0.00000000E+00
  0.00000000E+00  0.00000000E+00  0.00000000E+00
  0.00000000E+00  0.00000000E+00  0.00000000E+00
  0.00000000E+00  0.00000000E+00  0.00000000E+00
  0.00000000E+00  0.00000000E+00  0.00000000E+00
  0.00000000E+00  0.00000000E+00  0.00000000E+00
  0.00000000E+00  0.00000000E+00  0.00000000E+00
  0.00000000E+00  0.00000000E+00  0.00000000E+00
  0.00000000E+00  0.00000000E+00  0.00000000E+00
  0.00000000E+00  0.00000000E+00  0.00000000E+00
  0.00000000E+00  0.00000000E+00  0.00000000E+00
  0.00000000E+00  0.00000000E+00  0.00000000E+00
  0.00000000E+00  0.00000000E+00  0.00000000E+00
  0.00000000E+00  0.00000000E+00  0.00000000E+00
  0.00000000E+00  0.00000000E+00  0.00000000E+00
  0.00000000E+00  0.00000000E+00  0.00000000E+00
  0.00000000E+00  0.00000000E+00  0.00000000E+00
  0.00000000E+00  0.00000000E+00  0.00000000E+00
  0.00000000E+00  0.00000000E+00  0.00000000E+00
  0.00000000E+00  0.00000000E+00  0.00000000E+00
  0.00000000E+00  0.00000000E+00  0.00000000E+00
  0.00000000E+00  0.00000000E+00  0.00000000E+00
  0.00000000E+00  0.00000000E+00  0.00000000E+00
  0.00000000E+00  0.00000000E+00  0.00000000E+00
  0.00000000E+00  0.00000000E+00  0.00000000E+00
  0.00000000E+00  0.00000000E+00  0.00000000E+00
  0.00000000E+00  0.00000000E+00  0.00000000E+00
  0.00000000E+00  0.00000000E+00  0.00000000E+00
  0.00000000E+00  0.00000000E+00  0.00000000E+00
  0.00000000E+00  0.00000000E+00  0.00000000E+00
  0.00000000E+00  0.00000000E+00  0.00000000E+00
  0.00000000E+00  0.00000000E+00  0.00000000E+00
  0.00000000E+00  0.00000000E+00  0.00000000E+00
  0.00000000E+00  0.00000000E+00  0.00000000E+00
  0.00000000E+00  0.00000000E+00  0.00000000E+00
  0.00000000E+00  0.00000000E+00  0.00000000E+00
  0.00000000E+00  0.00000000E+00  0.00000000E+00
