This file is generated by VASPKIT code  
   1.00000000000000     
    12.6406764983999995    0.0000000000000000    0.0000000000000000
     0.0000000000000000   25.2016296386999983    0.0000000000000000
     0.0000000000000000    1.8348134680999999   51.7578896671000024
   Cs   Pb   I 
    24    24    72
Direct
  0.2500000000316405  0.4893907356498014  0.2363547393746803
  0.2500000000316405  0.4923947635303051  0.4793734226564128
  0.2500000000316405  0.0108684680718401  0.2322984839046285
  0.2500000000316405  0.0061790124390183  0.4849829230444165
  0.2500000000316405  0.2527651897915796  0.3541189807438143
  0.2500000000316405  0.7504734912787425  0.3497096639235283
  0.7500000000158238  0.0390627774694621  0.2230913250018595
  0.7500000000158238  0.0304208283647717  0.5046481512688641
  0.7500000000158238  0.5132470703298914  0.2575614494502099
  0.7500000000158238  0.5106996921333500  0.4807909205999185
  0.7500000000158238  0.2728621299530293  0.3765118715622170
  0.7500000000158238  0.7741526117719744  0.3785163211241691
  0.7500000000158238  0.0396384350674378  0.3718168296100187
  0.7500000000158238  0.5239553341020988  0.3696420812048007
  0.7500000000158238  0.2881347713794704  0.2545131500897826
  0.7500000000158238  0.2996408102147518  0.4851985894819059
  0.7500000000158238  0.7889807750694503  0.2453904107545326
  0.7500000000158238  0.7758337658880244  0.4976580316406107
  0.2500000000316405  0.4854098626975832  0.3587643476006218
  0.2500000000316405  0.9996819533277975  0.3584546516400471
  0.2500000000316405  0.2257968254947829  0.2484058185229419
  0.2500000000316405  0.2315853235422437  0.4761604529850579
  0.2500000000316405  0.7327891528821102  0.2341053947522742
  0.2500000000316405  0.7543603980871146  0.4848063852199689
 -0.0022170433296282  0.3876412314765051  0.3029075931486236
 -0.0014016746461519  0.8880513884130704  0.3063601280901325
 -0.0023296021158796  0.8936459952512785  0.5439403373175375
 -0.0003446119957651  0.1348777455590509  0.4267974026029406
 -0.0060427934487831  0.6318885515802617  0.1870043949584915
  0.0043275817381156  0.6410830061168378  0.4233057835693350
 -0.0067904357194753  0.1325752775367543  0.3012831412449002
 -0.0021741830026345  0.6402343920324742  0.3039311924987571
  0.0064227772331705  0.6264070740419134  0.5420275316607810
  0.0038044374624887  0.3879110082890638  0.4279035010314536
 -0.0025821634027416  0.8978334728073676  0.1884391995227476
  0.0002643023055102  0.8881819408347712  0.4255331022730142
  0.5022170433138045  0.3876412314765051  0.3029075931486236
  0.5014016746303281  0.8880513884130704  0.3063601280901325
  0.5023296021000561  0.8936459952512785  0.5439403373175375
  0.5003446119799416  0.1348777455590509  0.4267974026029406
  0.5060427934329598  0.6318885515802617  0.1870043949584915
  0.4956724182460605  0.6410830061168378  0.4233057835693350
  0.5067904357036520  0.1325752775367543  0.3012831412449002
  0.5021741829868109  0.6402343920324742  0.3039311924987571
  0.4935772227510059  0.6264070740419134  0.5420275316607810
  0.4961955625216873  0.3879110082890638  0.4279035010314536
  0.5025821633869182  0.8978334728073676  0.1884391995227476
  0.4997356976786662  0.8881819408347712  0.4255331022730142
  0.2500000000316405  0.1270929643031598  0.3111653514890226
  0.2500000000316405  0.6173563685767670  0.3108158218324947
  0.2500000000316405  0.5908718257428272  0.5509590008474210
  0.2500000000316405  0.3669366496104177  0.4382492018929176
  0.2500000000316405  0.8733553703573913  0.1977352275170521
  0.2500000000316405  0.8776496538295869  0.4389175381381403
  0.7500000000158238  0.4061581910997630  0.4206177794854871
  0.7500000000158238  0.8820580277669704  0.1766923354061384
  0.7500000000158238  0.9060875648278093  0.4135783250541963
  0.7500000000158238  0.1413954068450948  0.2834126994973546
  0.7500000000158238  0.6549865797706302  0.2900974994438817
  0.7500000000158238  0.6077552689254894  0.5411485690609027
  0.7500000000158238  0.1143339143138389  0.4379041308554908
  0.7500000000158238  0.5934628072433126  0.1871361788780418
  0.7500000000158238  0.6206598257535717  0.4273463776467903
  0.7500000000158238  0.3734855265401720  0.3153241435799943
  0.7500000000158238  0.8567589377163233  0.3132452569104722
  0.7500000000158238  0.8710779709198900  0.5571701110513068
  0.2500000000316405  0.3986427802973464  0.2962331739346057
  0.2500000000316405  0.9099214391847809  0.2964153855401775
  0.2500000000316405  0.8789848037132161  0.5318576432177307
  0.2500000000316405  0.1548152048450214  0.4138866599147585
  0.2500000000316405  0.6124348294705558  0.1783125744133693
  0.2500000000316405  0.6737007294235551  0.4191921039956044
  0.0357897784620864  0.3654967525602471  0.3660234024328531
  0.0414182828225877  0.8581546907096037  0.3663144798909956
  0.0320817154702377  0.1213153409674867  0.2416121362078447
  0.0374985771345220  0.1209790896618093  0.4860572956797442
  0.0289360411992385  0.5988885362468026  0.2432420357663877
  0.0255112902312938  0.6010387784989973  0.4853192297741770
  0.9548216749173871  0.1599032547307936  0.3633486197416012
  0.9674242538457647  0.6669608655121017  0.3630841679414351
  0.9674303655723338  0.4067032537706632  0.2426649511184038
  0.9769824279124917  0.4049862470557242  0.4884100452921768
  0.9473953795239221  0.9186783886916340  0.2453841956663410
  0.9408647140567775  0.9080561301277129  0.4861844440064555
  0.9670004982947066  0.5136032909519077  0.3164346714633627
  0.9678053499642237  0.0082242723923913  0.3197363225214142
  0.0004470649101248  0.0085260360366133  0.5519607932359467
  0.9637782010971186  0.2627722867498466  0.4374332992727649
  0.9801515942504631  0.7478049331338084  0.1940295583555830
  0.9583430712116154  0.7606803629188217  0.4405020042881660
  0.0123114504249840  0.0128161319564044  0.1759050426787214
  0.0394522804536860  0.0113605187855263  0.4141287385821716
  0.0453323285547381  0.5157681356516099  0.4146641020846444
  0.0195759865362682  0.2623726914579351  0.2927079317156264
  0.0426671247890341  0.7623945934233013  0.2885310300162677
  0.0187936171598658  0.7438246306696334  0.5370396263603199
  0.5451783251142605  0.1599032547307936  0.3633486197416012
  0.5325757461858829  0.6669608655121017  0.3630841679414351
  0.5325696344593138  0.4067032537706632  0.2426649511184038
  0.5230175721191559  0.4049862470557242  0.4884100452921768
  0.5526046205077255  0.9186783886916340  0.2453841956663410
  0.5591352859748701  0.9080561301277129  0.4861844440064555
  0.4642102103676279  0.3654967525602471  0.3660234024328531
  0.4585817060071264  0.8581546907096037  0.3663144798909956
  0.4679182733594762  0.1213153409674867  0.2416121362078447
  0.4625014116951921  0.1209790896618093  0.4860572956797442
  0.4710639476304754  0.5988885362468026  0.2432420357663877
  0.4744886985984202  0.6010387784989973  0.4853192297741770
  0.4876885384047300  0.0128161319564044  0.1759050426787214
  0.4605477083760278  0.0113605187855263  0.4141287385821716
  0.4546676602749758  0.5157681356516099  0.4146641020846444
  0.4804240022934458  0.2623726914579351  0.2927079317156264
  0.4573328640406799  0.7623945934233013  0.2885310300162677
  0.4812063716698480  0.7438246306696334  0.5370396263603199
  0.5329995017369410  0.5136032909519077  0.3164346714633627
  0.5321946500674238  0.0082242723923913  0.3197363225214142
  0.4995529351215228  0.0085260360366133  0.5519607932359467
  0.5362217989345289  0.2627722867498466  0.4374332992727649
  0.5198484057811845  0.7478049331338084  0.1940295583555830
  0.5416569288200321  0.7606803629188217  0.4405020042881660
 
  0.00000000E+00  0.00000000E+00  0.00000000E+00
  0.00000000E+00  0.00000000E+00  0.00000000E+00
  0.00000000E+00  0.00000000E+00  0.00000000E+00
  0.00000000E+00  0.00000000E+00  0.00000000E+00
  0.00000000E+00  0.00000000E+00  0.00000000E+00
  0.00000000E+00  0.00000000E+00  0.00000000E+00
  0.00000000E+00  0.00000000E+00  0.00000000E+00
  0.00000000E+00  0.00000000E+00  0.00000000E+00
  0.00000000E+00  0.00000000E+00  0.00000000E+00
  0.00000000E+00  0.00000000E+00  0.00000000E+00
  0.00000000E+00  0.00000000E+00  0.00000000E+00
  0.00000000E+00  0.00000000E+00  0.00000000E+00
  0.00000000E+00  0.00000000E+00  0.00000000E+00
  0.00000000E+00  0.00000000E+00  0.00000000E+00
  0.00000000E+00  0.00000000E+00  0.00000000E+00
  0.00000000E+00  0.00000000E+00  0.00000000E+00
  0.00000000E+00  0.00000000E+00  0.00000000E+00
  0.00000000E+00  0.00000000E+00  0.00000000E+00
  0.00000000E+00  0.00000000E+00  0.00000000E+00
  0.00000000E+00  0.00000000E+00  0.00000000E+00
  0.00000000E+00  0.00000000E+00  0.00000000E+00
  0.00000000E+00  0.00000000E+00  0.00000000E+00
  0.00000000E+00  0.00000000E+00  0.00000000E+00
  0.00000000E+00  0.00000000E+00  0.00000000E+00
  0.00000000E+00  0.00000000E+00  0.00000000E+00
  0.00000000E+00  0.00000000E+00  0.00000000E+00
  0.00000000E+00  0.00000000E+00  0.00000000E+00
  0.00000000E+00  0.00000000E+00  0.00000000E+00
  0.00000000E+00  0.00000000E+00  0.00000000E+00
  0.00000000E+00  0.00000000E+00  0.00000000E+00
  0.00000000E+00  0.00000000E+00  0.00000000E+00
  0.00000000E+00  0.00000000E+00  0.00000000E+00
  0.00000000E+00  0.00000000E+00  0.00000000E+00
  0.00000000E+00  0.00000000E+00  0.00000000E+00
  0.00000000E+00  0.00000000E+00  0.00000000E+00
  0.00000000E+00  0.00000000E+00  0.00000000E+00
  0.00000000E+00  0.00000000E+00  0.00000000E+00
  0.00000000E+00  0.00000000E+00  0.00000000E+00
  0.00000000E+00  0.00000000E+00  0.00000000E+00
  0.00000000E+00  0.00000000E+00  0.00000000E+00
  0.00000000E+00  0.00000000E+00  0.00000000E+00
  0.00000000E+00  0.00000000E+00  0.00000000E+00
  0.00000000E+00  0.00000000E+00  0.00000000E+00
  0.00000000E+00  0.00000000E+00  0.00000000E+00
  0.00000000E+00  0.00000000E+00  0.00000000E+00
  0.00000000E+00  0.00000000E+00  0.00000000E+00
  0.00000000E+00  0.00000000E+00  0.00000000E+00
  0.00000000E+00  0.00000000E+00  0.00000000E+00
  0.00000000E+00  0.00000000E+00  0.00000000E+00
  0.00000000E+00  0.00000000E+00  0.00000000E+00
  0.00000000E+00  0.00000000E+00  0.00000000E+00
  0.00000000E+00  0.00000000E+00  0.00000000E+00
  0.00000000E+00  0.00000000E+00  0.00000000E+00
  0.00000000E+00  0.00000000E+00  0.00000000E+00
  0.00000000E+00  0.00000000E+00  0.00000000E+00
  0.00000000E+00  0.00000000E+00  0.00000000E+00
  0.00000000E+00  0.00000000E+00  0.00000000E+00
  0.00000000E+00  0.00000000E+00  0.00000000E+00
  0.00000000E+00  0.00000000E+00  0.00000000E+00
  0.00000000E+00  0.00000000E+00  0.00000000E+00
  0.00000000E+00  0.00000000E+00  0.00000000E+00
  0.00000000E+00  0.00000000E+00  0.00000000E+00
  0.00000000E+00  0.00000000E+00  0.00000000E+00
  0.00000000E+00  0.00000000E+00  0.00000000E+00
  0.00000000E+00  0.00000000E+00  0.00000000E+00
  0.00000000E+00  0.00000000E+00  0.00000000E+00
  0.00000000E+00  0.00000000E+00  0.00000000E+00
  0.00000000E+00  0.00000000E+00  0.00000000E+00
  0.00000000E+00  0.00000000E+00  0.00000000E+00
  0.00000000E+00  0.00000000E+00  0.00000000E+00
  0.00000000E+00  0.00000000E+00  0.00000000E+00
  0.00000000E+00  0.00000000E+00  0.00000000E+00
  0.00000000E+00  0.00000000E+00  0.00000000E+00
  0.00000000E+00  0.00000000E+00  0.00000000E+00
  0.00000000E+00  0.00000000E+00  0.00000000E+00
  0.00000000E+00  0.00000000E+00  0.00000000E+00
  0.00000000E+00  0.00000000E+00  0.00000000E+00
  0.00000000E+00  0.00000000E+00  0.00000000E+00
  0.00000000E+00  0.00000000E+00  0.00000000E+00
  0.00000000E+00  0.00000000E+00  0.00000000E+00
  0.00000000E+00  0.00000000E+00  0.00000000E+00
  0.00000000E+00  0.00000000E+00  0.00000000E+00
  0.00000000E+00  0.00000000E+00  0.00000000E+00
  0.00000000E+00  0.00000000E+00  0.00000000E+00
  0.00000000E+00  0.00000000E+00  0.00000000E+00
  0.00000000E+00  0.00000000E+00  0.00000000E+00
  0.00000000E+00  0.00000000E+00  0.00000000E+00
  0.00000000E+00  0.00000000E+00  0.00000000E+00
  0.00000000E+00  0.00000000E+00  0.00000000E+00
  0.00000000E+00  0.00000000E+00  0.00000000E+00
  0.00000000E+00  0.00000000E+00  0.00000000E+00
  0.00000000E+00  0.00000000E+00  0.00000000E+00
  0.00000000E+00  0.00000000E+00  0.00000000E+00
  0.00000000E+00  0.00000000E+00  0.00000000E+00
  0.00000000E+00  0.00000000E+00  0.00000000E+00
  0.00000000E+00  0.00000000E+00  0.00000000E+00
  0.00000000E+00  0.00000000E+00  0.00000000E+00
  0.00000000E+00  0.00000000E+00  0.00000000E+00
  0.00000000E+00  0.00000000E+00  0.00000000E+00
  0.00000000E+00  0.00000000E+00  0.00000000E+00
  0.00000000E+00  0.00000000E+00  0.00000000E+00
  0.00000000E+00  0.00000000E+00  0.00000000E+00
  0.00000000E+00  0.00000000E+00  0.00000000E+00
  0.00000000E+00  0.00000000E+00  0.00000000E+00
  0.00000000E+00  0.00000000E+00  0.00000000E+00
  0.00000000E+00  0.00000000E+00  0.00000000E+00
  0.00000000E+00  0.00000000E+00  0.00000000E+00
  0.00000000E+00  0.00000000E+00  0.00000000E+00
  0.00000000E+00  0.00000000E+00  0.00000000E+00
  0.00000000E+00  0.00000000E+00  0.00000000E+00
  0.00000000E+00  0.00000000E+00  0.00000000E+00
  0.00000000E+00  0.00000000E+00  0.00000000E+00
  0.00000000E+00  0.00000000E+00  0.00000000E+00
  0.00000000E+00  0.00000000E+00  0.00000000E+00
  0.00000000E+00  0.00000000E+00  0.00000000E+00
  0.00000000E+00  0.00000000E+00  0.00000000E+00
  0.00000000E+00  0.00000000E+00  0.00000000E+00
  0.00000000E+00  0.00000000E+00  0.00000000E+00
  0.00000000E+00  0.00000000E+00  0.00000000E+00
  0.00000000E+00  0.00000000E+00  0.00000000E+00
