This file is generated by VASPKIT code
1.0
       12.6406764984         0.0000000000         0.0000000000
        0.0000000000        25.2016296387         0.0000000000
        0.0000000000         1.8348134681        51.7578896671
   Cs   Pb    I
   24   24   72
Cartesian
     3.160169125        13.029522760        12.320776620
     3.160169125        13.641126574        24.906740754
     3.160169125        25.630336828        12.320776620
     3.160169125         1.040311755        24.906740754
     3.160169125         7.034917633        18.613758687
     3.160169125        19.635731701        18.613758687
     9.480507374         0.794501062        12.851149334
     9.480507374         1.406105506        25.437112696
     9.480507374        13.395315177        12.851149334
     9.480507374        14.006919715        25.437112696
     9.480507374         7.400710774        19.144130629
     9.480507374        20.001524842        19.144130629
     9.480507374         1.191157359        19.048754441
     9.480507374        13.791972741        19.048754441
     9.480507374         7.185763076        12.755773145
     9.480507374         7.797366864        25.341736508
     9.480507374        19.786577896        12.755773145
     9.480507374        20.398182434        25.341736508
     3.160169125        13.244470485        18.709134876
     3.160169125        25.845285304        18.709134876
     3.160169125         6.638260819        12.416153580
     3.160169125         7.249865358        25.002116943
     3.160169125        19.239075639        12.416153580
     3.160169125        19.850680177        25.002116943
     0.000000000        10.215116794        15.732454396
     0.000000000        22.815931613        15.732454396
     0.000000000        23.427536124        28.318416988
     0.000000000         4.220511292        22.025436463
     0.000000000        16.209721921         9.439472329
     0.000000000        16.821326487        22.025436463
     0.000000000         3.914709384        15.732454396
     0.000000000        16.515524204        15.732454396
     0.000000000        17.127128715        28.318416988
     0.000000000        10.520919077        22.025436463
     0.000000000        22.510129331         9.439472329
     0.000000000        23.121733896        22.025436463
     6.320338249        10.215116794        15.732454396
     6.320338249        22.815931613        15.732454396
     6.320338249        23.427536124        28.318416988
     6.320338249         4.220511292        22.025436463
     6.320338249        16.209721921         9.439472329
     6.320338249        16.821326487        22.025436463
     6.320338249         3.914709384        15.732454396
     6.320338249        16.515524204        15.732454396
     6.320338249        17.127128715        28.318416988
     6.320338249        10.520919077        22.025436463
     6.320338249        22.510129331         9.439472329
     6.320338249        23.121733896        22.025436463
     3.160169125         3.653287804        16.101349170
     3.160169125        16.254102999        16.101349170
     3.160169125        16.865707564        28.687313303
     3.160169125        10.259497817        22.394329694
     3.160169125        22.248708126         9.808367103
     3.160169125        22.860312636        22.394329694
     9.480507374        10.782340282        21.656541690
     9.480507374        22.771550563         9.070578327
     9.480507374        23.383155101        21.656541690
     9.480507374         4.176130590        15.363559623
     9.480507374        16.776945409        15.363559623
     9.480507374        17.388549975        27.949523757
     9.480507374         3.864740363        22.304454079
     9.480507374        15.853950081         9.718490717
     9.480507374        16.465554619        22.304454079
     9.480507374         9.859345678        16.011472012
     9.480507374        22.460159746        16.011472012
     9.480507374        23.071764257        28.597434604
     3.160169125        10.570887856        15.453435237
     3.160169125        23.171701924        15.453435237
     3.160169125        23.783306490        28.039399371
     3.160169125         4.576282353        21.746417304
     3.160169125        16.565492259         9.160453942
     3.160169125        17.177096797        21.746417304
     0.327709529         9.784137445        18.882393700
     0.327709529        22.384952264        18.882393700
     0.327709529         3.177927940        12.589411633
     0.327709529         3.789532318        25.175375767
     0.327709529        15.778742572        12.589411633
     0.327709529        16.390347137        25.175375767
    12.312967205         4.651490586        18.875495617
    12.312967205        17.252305781        18.875495617
    12.312967205        10.646095365        12.582514321
    12.312967205        11.257699903        25.168477683
    12.312967205        23.246910935        12.582514321
    12.312967205        23.858515474        25.168477683
    12.312967205        13.390215506        16.315812938
    12.312967205         0.789402189        16.315812938
    12.312967205         1.401003750        28.901777072
    12.312967205         7.395610379        22.608795005
    12.312967205        19.384820660        10.022831643
    12.312967205        19.996425198        22.608795005
     0.327709529         0.433808104         8.856113016
     0.327709529         1.045412502        21.442076378
     0.327709529        13.646227720        21.442076378
     0.327709529         7.040018028        15.149094311
     0.327709529        19.640832847        15.149094311
     0.327709529        20.252437358        27.735056903
     6.648047543         4.651490586        18.875495617
     6.648047543        17.252305781        18.875495617
     6.648047543        10.646095365        12.582514321
     6.648047543        11.257699903        25.168477683
     6.648047543        23.246910935        12.582514321
     6.648047543        23.858515474        25.168477683
     5.992628579         9.784137445        18.882393700
     5.992628579        22.384952264        18.882393700
     5.992628579         3.177927940        12.589411633
     5.992628579         3.789532318        25.175375767
     5.992628579        15.778742572        12.589411633
     5.992628579        16.390347137        25.175375767
     5.992628579         0.433808104         8.856113016
     5.992628579         1.045412502        21.442076378
     5.992628579        13.646227720        21.442076378
     5.992628579         7.040018028        15.149094311
     5.992628579        19.640832847        15.149094311
     5.992628579        20.252437358        27.735056903
     6.648047543        13.390215506        16.315812938
     6.648047543         0.789402189        16.315812938
     6.648047543         1.401003750        28.901777072
     6.648047543         7.395610379        22.608795005
     6.648047543        19.384820660        10.022831643
     6.648047543        19.996425198        22.608795005
