This file is generated by VASPKIT code  
   1.00000000000000     
    12.6406764983999995    0.0000000000000000    0.0000000000000000
     0.0000000000000000   25.2016296386999983    0.0000000000000000
     0.0000000000000000    1.8348134680999999   55.7578896671000024
   Cs   Pb   I 
    24    32    92
Direct
  0.2636137024158784  0.5090646407755420  0.2366973442210115
  0.2581771027993270  0.5055793494367242  0.4686616443137567
  0.2592668051838402  0.9941939174021879  0.2357150672667638
  0.2638948693510018  0.9889073197737358  0.4740031430632538
  0.2480262560932086  0.2460113093696317  0.3548826036670590
  0.2616639207066355  0.7453726977466186  0.3569207076261937
  0.7418229568177312  0.0141137551252423  0.2608481414571442
  0.7363863572011794  0.0106284898563370  0.4928124862387217
  0.7361051902660556  0.5307858173654852  0.2555066427076472
  0.7407332544332176  0.5254991591974705  0.4937947631929694
  0.7519738035238495  0.2736818268571249  0.3746272267926813
  0.7383361389104223  0.7743204980516853  0.3725891228335466
  0.7514830654689481  0.0324271266476451  0.3715996201097959
  0.7443922366745761  0.5355634698061540  0.3688173678110687
  0.7505664463420936  0.2724336505913169  0.2496757845616143
  0.7481371629781720  0.2763223570007171  0.4855325943564504
  0.7267582397248443  0.7756590370733105  0.2489614068823817
  0.7386344408332254  0.7738532361686701  0.4865113819231347
  0.2485169941481099  0.4872659555866031  0.3579102401618235
  0.2556078229424815  0.9841296664047643  0.3606924924605507
  0.2518628966388854  0.2433707345318141  0.2439772510188895
  0.2494336132749645  0.2472594558343744  0.4798340459174454
  0.2613656187838321  0.7458398404560918  0.2429984634522048
  0.2732418198922137  0.7440340395249410  0.4805484235966782
 -0.0005743017814981  0.3836321160532353  0.3079873678337706
  0.0004649953874303  0.3874203560795684  0.5281598764620451
  0.0036083664470870  0.8812450848453067  0.3087124986735962
  0.0012650057333952  0.8836568177686777  0.5300129470087397
 -0.0004649953874304  0.1322727503461161  0.2013499540170144
  0.0005743017814979  0.1360610052657799  0.4215224924378489
 -0.0012650057333951  0.6360363184288966  0.1994968834703203
  0.9963916335529128  0.6384479917266049  0.4207973615980233
  0.9992252961626886  0.1328812436625422  0.3097988821392941
  0.0052722040911028  0.1287998089585981  0.5308415447273666
  0.9985496311002574  0.6358408986507706  0.3092399990982724
  0.0062849836881154  0.6295493237640311  0.5325226566826884
  0.9947277959088971  0.3908932974274097  0.1986682857516937
  0.0007747038373111  0.3868118776564802  0.4197109781323253
  0.9937150163118845  0.8901438124732199  0.1969871737963713
  0.0014503688997427  0.8838521779608177  0.4202698611733471
  0.4993689790555663  0.3826051926699263  0.3081548775923826
  0.5023729388818167  0.3886762562883475  0.5291097786053617
  0.4990565986981910  0.8843443249985546  0.3065311285028122
  0.4968852022180964  0.8804283339078202  0.5444711833948075
  0.4976270610865356  0.1310168501373369  0.2004000518736985
  0.5006310209127864  0.1370879286490891  0.4213549826792369
  0.5031147977502560  0.6392648022897541  0.1850386470842523
  0.5009434012701616  0.6353487515733570  0.4229787317688072
  0.5022233916870303  0.1336719874681400  0.3102042200496675
  0.4909570995428739  0.1316485732609618  0.5318732079902952
  0.4985562704518917  0.6347155613700519  0.3070442331440965
  0.5029999312746890  0.6361689874351950  0.5476408301819766
  0.5090429004254783  0.3880445331250458  0.1976366224887647
  0.4977766082813223  0.3860211338508827  0.4193056402219519
  0.4970000686936559  0.8835241488020560  0.1818690002970834
  0.5014437295164607  0.8849775152415364  0.4224656271275230
  0.2506347804656849  0.1145412628348849  0.3204400431618123
  0.2480935491094225  0.1419867278393697  0.5446375461520317
  0.2488575173925343  0.6163501912064044  0.3181117627831813
  0.2535780007799808  0.6342126775122674  0.5373019132591256
  0.2516821411401348  0.3758295061512094  0.2035816775878991
  0.2493053502796878  0.3693239632317046  0.4315686983417292
  0.2472549806658351  0.8722990605868444  0.1952931553086865
  0.2487656577537960  0.8648708619387365  0.4310605696386414
  0.7519065105076351  0.3777063636812243  0.1848722694114287
  0.7493652791513729  0.4051518659425488  0.4090698171291268
  0.7464220588370768  0.8854803991005573  0.1922079023043350
  0.7511425422245234  0.9033428854037771  0.4113980975077579
  0.7506947093373706  0.1503691134076656  0.2979411619298902
  0.7483179184769234  0.1438636300463932  0.5259281827030402
  0.7512344018632621  0.6548222742721747  0.2984492906329781
  0.7527450789512230  0.6473940756623437  0.5342167049822525
  0.7515493078306094  0.1282550159490918  0.2113935912063887
  0.7507617149612771  0.1110570288098734  0.4317889340383391
  0.7484247970893861  0.6342583923632503  0.2012129093766875
  0.7496522616330560  0.6082453911994923  0.4295794469373457
  0.7492597086289554  0.3543216467899687  0.3133479127596244
  0.7475710022529614  0.3772750902469936  0.5395179842721068
  0.7532787139157395  0.8576666328665931  0.3107812076079696
  0.7519997873400738  0.8777239348190600  0.5392135507851361
  0.2492383446557808  0.4086360999570439  0.2977208964214011
  0.2484507517864489  0.3914380606637683  0.5181162541689511
  0.2503477979840019  0.9114476854001661  0.2999303835223946
  0.2515752625276715  0.8854346842615115  0.5282969359986520
  0.2524290573640966  0.1424180012987038  0.1899918462069531
  0.2507403509881027  0.1653714745171096  0.4161619177001088
  0.2480002722769840  0.6419691417791915  0.1902962796939240
  0.2467213457013185  0.6620265629317109  0.4187286228517635
  0.0411669748367074  0.3601704406113032  0.3642975639408786
  0.0405825742023778  0.8579000266818105  0.3647471688135153
  0.0510387277823239  0.1046850189190953  0.2538564004111525
  0.0546323599551168  0.1096668871232241  0.4781637969058135
  0.0294442472663667  0.6052407737852451  0.2526000391920510
  0.0206771506254703  0.6074030849809435  0.4791339871928177
  0.9588330438015392  0.1595226806810382  0.3652122367456218
  0.9594174444358688  0.6617930499030970  0.3647626318729851
  0.9453676586831296  0.4100262118029518  0.2513460335732464
  0.9489612908559224  0.4150081247278089  0.4756534300485877
  0.9793228680127763  0.9122899916569847  0.2503758432862423
  0.9705557713718799  0.9144523624534128  0.4769097912676822
  0.9577965152063399  0.5085655075512473  0.3191056815772529
  0.9791379840179100  0.5099654203411798  0.5455840804331612
  0.9556497498053242  0.0072427710138506  0.3194322132692800
  0.9813613470521957  0.0086916469780054  0.5437439037242039
  0.9919048489522968  0.2571727603196348  0.2063997324849071
  0.9559448121008890  0.2606437089971345  0.4319236858385644
  0.9877042220699138  0.7583848617177021  0.2103396681478449
  0.9430952489345537  0.7603932402806305  0.4315378581130508
  0.0208620346203369  0.0097277032792765  0.1839257798384584
  0.0422035034319067  0.0111276109782340  0.4104041488824802
  0.0186386715860512  0.5110015460427302  0.1857659565474087
  0.0443502688329225  0.5124503065262254  0.4100776171904532
  0.0440552065373574  0.2590494272296218  0.2975861446211759
  0.0080951696859494  0.2625203461192231  0.5231100830978801
  0.0569047697036930  0.7593000151566659  0.2979719723466824
  0.0122957965683326  0.7613082148937228  0.5191701474349357
  0.5433126350717754  0.1600555964831089  0.3653599222160041
  0.5234329953402228  0.6522447786590394  0.1341551522257225
  0.5346385495928860  0.6573662858220540  0.3642341523791698
  0.5109170438760030  0.6423719240610656  0.5985275576790887
  0.5496428425511124  0.4042477229060853  0.2508927004857285
  0.5463604665527260  0.4115641884581395  0.4757750148827735
  0.5258132204780862  0.9048352999406925  0.2520253286352432
  0.5288072215977878  0.8988816532006961  0.4774687530231991
  0.4566873351513396  0.3596375248092328  0.3641498784704963
  0.4890829263471122  0.8773211525511410  0.1309822802384512
  0.4653614206302292  0.8623267907628535  0.3652756483073306
  0.4765669748828853  0.8674482979525561  0.5953547080458970
  0.4536395036703890  0.1081289551887646  0.2537348155769597
  0.4503571276720026  0.1154453760200906  0.4786171299933316
  0.4711927486253273  0.6208114830379617  0.2520410774365340
  0.4741867497450286  0.6148577766972357  0.4774845018438167
  0.4929769589698516  0.0095132842292916  0.1874369762916476
  0.4578811669347497  0.0123458279009913  0.4125544469476164
  0.4941377012647676  0.5101058042640689  0.1880258746635529
  0.4557617435058230  0.5107410359780994  0.4094435990177468
  0.4544217309209505  0.2587607835803616  0.2978052896781009
  0.4883571696470408  0.2622901992224022  0.5257159223577853
  0.4556823864469089  0.7602752669467338  0.2978316019892470
  0.4938925001973301  0.7585302269486595  0.5297227954699723
  0.5421188032883656  0.5073472906284905  0.3169553835121168
  0.5070230112532632  0.5101798393911642  0.5420728839799717
  0.5442382267172923  0.0089520415619765  0.3200662314419864
  0.5058622689583473  0.0095873887566665  0.5414839856080668
  0.5116428005760747  0.2574029072164558  0.2037938932249952
  0.5455782393021645  0.2609323526463947  0.4317045407816393
  0.5061074700257852  0.7611628496627655  0.1997870201128077
  0.5443175837761993  0.7594179884905626  0.4316782284704933
 
  0.00000000E+00  0.00000000E+00  0.00000000E+00
  0.00000000E+00  0.00000000E+00  0.00000000E+00
  0.00000000E+00  0.00000000E+00  0.00000000E+00
  0.00000000E+00  0.00000000E+00  0.00000000E+00
  0.00000000E+00  0.00000000E+00  0.00000000E+00
  0.00000000E+00  0.00000000E+00  0.00000000E+00
  0.00000000E+00  0.00000000E+00  0.00000000E+00
  0.00000000E+00  0.00000000E+00  0.00000000E+00
  0.00000000E+00  0.00000000E+00  0.00000000E+00
  0.00000000E+00  0.00000000E+00  0.00000000E+00
  0.00000000E+00  0.00000000E+00  0.00000000E+00
  0.00000000E+00  0.00000000E+00  0.00000000E+00
  0.00000000E+00  0.00000000E+00  0.00000000E+00
  0.00000000E+00  0.00000000E+00  0.00000000E+00
  0.00000000E+00  0.00000000E+00  0.00000000E+00
  0.00000000E+00  0.00000000E+00  0.00000000E+00
  0.00000000E+00  0.00000000E+00  0.00000000E+00
  0.00000000E+00  0.00000000E+00  0.00000000E+00
  0.00000000E+00  0.00000000E+00  0.00000000E+00
  0.00000000E+00  0.00000000E+00  0.00000000E+00
  0.00000000E+00  0.00000000E+00  0.00000000E+00
  0.00000000E+00  0.00000000E+00  0.00000000E+00
  0.00000000E+00  0.00000000E+00  0.00000000E+00
  0.00000000E+00  0.00000000E+00  0.00000000E+00
  0.00000000E+00  0.00000000E+00  0.00000000E+00
  0.00000000E+00  0.00000000E+00  0.00000000E+00
  0.00000000E+00  0.00000000E+00  0.00000000E+00
  0.00000000E+00  0.00000000E+00  0.00000000E+00
  0.00000000E+00  0.00000000E+00  0.00000000E+00
  0.00000000E+00  0.00000000E+00  0.00000000E+00
  0.00000000E+00  0.00000000E+00  0.00000000E+00
  0.00000000E+00  0.00000000E+00  0.00000000E+00
  0.00000000E+00  0.00000000E+00  0.00000000E+00
  0.00000000E+00  0.00000000E+00  0.00000000E+00
  0.00000000E+00  0.00000000E+00  0.00000000E+00
  0.00000000E+00  0.00000000E+00  0.00000000E+00
  0.00000000E+00  0.00000000E+00  0.00000000E+00
  0.00000000E+00  0.00000000E+00  0.00000000E+00
  0.00000000E+00  0.00000000E+00  0.00000000E+00
  0.00000000E+00  0.00000000E+00  0.00000000E+00
  0.00000000E+00  0.00000000E+00  0.00000000E+00
  0.00000000E+00  0.00000000E+00  0.00000000E+00
  0.00000000E+00  0.00000000E+00  0.00000000E+00
  0.00000000E+00  0.00000000E+00  0.00000000E+00
  0.00000000E+00  0.00000000E+00  0.00000000E+00
  0.00000000E+00  0.00000000E+00  0.00000000E+00
  0.00000000E+00  0.00000000E+00  0.00000000E+00
  0.00000000E+00  0.00000000E+00  0.00000000E+00
  0.00000000E+00  0.00000000E+00  0.00000000E+00
  0.00000000E+00  0.00000000E+00  0.00000000E+00
  0.00000000E+00  0.00000000E+00  0.00000000E+00
  0.00000000E+00  0.00000000E+00  0.00000000E+00
  0.00000000E+00  0.00000000E+00  0.00000000E+00
  0.00000000E+00  0.00000000E+00  0.00000000E+00
  0.00000000E+00  0.00000000E+00  0.00000000E+00
  0.00000000E+00  0.00000000E+00  0.00000000E+00
  0.00000000E+00  0.00000000E+00  0.00000000E+00
  0.00000000E+00  0.00000000E+00  0.00000000E+00
  0.00000000E+00  0.00000000E+00  0.00000000E+00
  0.00000000E+00  0.00000000E+00  0.00000000E+00
  0.00000000E+00  0.00000000E+00  0.00000000E+00
  0.00000000E+00  0.00000000E+00  0.00000000E+00
  0.00000000E+00  0.00000000E+00  0.00000000E+00
  0.00000000E+00  0.00000000E+00  0.00000000E+00
  0.00000000E+00  0.00000000E+00  0.00000000E+00
  0.00000000E+00  0.00000000E+00  0.00000000E+00
  0.00000000E+00  0.00000000E+00  0.00000000E+00
  0.00000000E+00  0.00000000E+00  0.00000000E+00
  0.00000000E+00  0.00000000E+00  0.00000000E+00
  0.00000000E+00  0.00000000E+00  0.00000000E+00
  0.00000000E+00  0.00000000E+00  0.00000000E+00
  0.00000000E+00  0.00000000E+00  0.00000000E+00
  0.00000000E+00  0.00000000E+00  0.00000000E+00
  0.00000000E+00  0.00000000E+00  0.00000000E+00
  0.00000000E+00  0.00000000E+00  0.00000000E+00
  0.00000000E+00  0.00000000E+00  0.00000000E+00
  0.00000000E+00  0.00000000E+00  0.00000000E+00
  0.00000000E+00  0.00000000E+00  0.00000000E+00
  0.00000000E+00  0.00000000E+00  0.00000000E+00
  0.00000000E+00  0.00000000E+00  0.00000000E+00
  0.00000000E+00  0.00000000E+00  0.00000000E+00
  0.00000000E+00  0.00000000E+00  0.00000000E+00
  0.00000000E+00  0.00000000E+00  0.00000000E+00
  0.00000000E+00  0.00000000E+00  0.00000000E+00
  0.00000000E+00  0.00000000E+00  0.00000000E+00
  0.00000000E+00  0.00000000E+00  0.00000000E+00
  0.00000000E+00  0.00000000E+00  0.00000000E+00
  0.00000000E+00  0.00000000E+00  0.00000000E+00
  0.00000000E+00  0.00000000E+00  0.00000000E+00
  0.00000000E+00  0.00000000E+00  0.00000000E+00
  0.00000000E+00  0.00000000E+00  0.00000000E+00
  0.00000000E+00  0.00000000E+00  0.00000000E+00
  0.00000000E+00  0.00000000E+00  0.00000000E+00
  0.00000000E+00  0.00000000E+00  0.00000000E+00
  0.00000000E+00  0.00000000E+00  0.00000000E+00
  0.00000000E+00  0.00000000E+00  0.00000000E+00
  0.00000000E+00  0.00000000E+00  0.00000000E+00
  0.00000000E+00  0.00000000E+00  0.00000000E+00
  0.00000000E+00  0.00000000E+00  0.00000000E+00
  0.00000000E+00  0.00000000E+00  0.00000000E+00
  0.00000000E+00  0.00000000E+00  0.00000000E+00
  0.00000000E+00  0.00000000E+00  0.00000000E+00
  0.00000000E+00  0.00000000E+00  0.00000000E+00
  0.00000000E+00  0.00000000E+00  0.00000000E+00
  0.00000000E+00  0.00000000E+00  0.00000000E+00
  0.00000000E+00  0.00000000E+00  0.00000000E+00
  0.00000000E+00  0.00000000E+00  0.00000000E+00
  0.00000000E+00  0.00000000E+00  0.00000000E+00
  0.00000000E+00  0.00000000E+00  0.00000000E+00
  0.00000000E+00  0.00000000E+00  0.00000000E+00
  0.00000000E+00  0.00000000E+00  0.00000000E+00
  0.00000000E+00  0.00000000E+00  0.00000000E+00
  0.00000000E+00  0.00000000E+00  0.00000000E+00
  0.00000000E+00  0.00000000E+00  0.00000000E+00
  0.00000000E+00  0.00000000E+00  0.00000000E+00
  0.00000000E+00  0.00000000E+00  0.00000000E+00
  0.00000000E+00  0.00000000E+00  0.00000000E+00
  0.00000000E+00  0.00000000E+00  0.00000000E+00
  0.00000000E+00  0.00000000E+00  0.00000000E+00
  0.00000000E+00  0.00000000E+00  0.00000000E+00
  0.00000000E+00  0.00000000E+00  0.00000000E+00
  0.00000000E+00  0.00000000E+00  0.00000000E+00
  0.00000000E+00  0.00000000E+00  0.00000000E+00
  0.00000000E+00  0.00000000E+00  0.00000000E+00
  0.00000000E+00  0.00000000E+00  0.00000000E+00
  0.00000000E+00  0.00000000E+00  0.00000000E+00
  0.00000000E+00  0.00000000E+00  0.00000000E+00
  0.00000000E+00  0.00000000E+00  0.00000000E+00
  0.00000000E+00  0.00000000E+00  0.00000000E+00
  0.00000000E+00  0.00000000E+00  0.00000000E+00
  0.00000000E+00  0.00000000E+00  0.00000000E+00
  0.00000000E+00  0.00000000E+00  0.00000000E+00
  0.00000000E+00  0.00000000E+00  0.00000000E+00
  0.00000000E+00  0.00000000E+00  0.00000000E+00
  0.00000000E+00  0.00000000E+00  0.00000000E+00
  0.00000000E+00  0.00000000E+00  0.00000000E+00
  0.00000000E+00  0.00000000E+00  0.00000000E+00
  0.00000000E+00  0.00000000E+00  0.00000000E+00
  0.00000000E+00  0.00000000E+00  0.00000000E+00
  0.00000000E+00  0.00000000E+00  0.00000000E+00
  0.00000000E+00  0.00000000E+00  0.00000000E+00
  0.00000000E+00  0.00000000E+00  0.00000000E+00
  0.00000000E+00  0.00000000E+00  0.00000000E+00
  0.00000000E+00  0.00000000E+00  0.00000000E+00
  0.00000000E+00  0.00000000E+00  0.00000000E+00
  0.00000000E+00  0.00000000E+00  0.00000000E+00
  0.00000000E+00  0.00000000E+00  0.00000000E+00
  0.00000000E+00  0.00000000E+00  0.00000000E+00
