This file is generated by VASPKIT code  
   1.00000000000000     
    17.3823947905999994    0.0000000000000000    0.0000000000000000
     0.0000000000000000   18.2475891113000017    0.0000000000000000
     0.0000000000000000    0.0000000000000000   37.9220275878999971
   Cs   Pb   I 
    24    32   100
Direct
  0.5069518949538279  0.4844106129645927  0.4085307256412132
  0.5069518949538279  0.4844106129645927  0.7581359311046547
  0.5069518949538279  0.9844105831716140  0.4085307256412132
  0.5069518949538279  0.9844105831716140  0.7581359311046547
  0.9836410923019648  0.4728834249995829  0.4119983709429533
  0.9836410923019648  0.4728834249995829  0.7546682858029146
  0.9836410923019648  0.9728833952066045  0.4119983709429533
  0.9836410923019648  0.9728833952066045  0.7546682858029146
  0.0062974946644899  0.0348280674203340  0.5833333134607557
  0.0062974946644899  0.5348280636581950  0.5833333134607557
  0.5219195584849741  0.0380179029076288  0.5833333134607557
  0.5219195584849741  0.5380178991454895  0.5833333134607557
  0.2395529786018117  0.2849751648028473  0.5833333134607557
  0.2395529786018117  0.7849751648220243  0.5833333134607557
  0.7403054593299405  0.2846344441459723  0.5833333134607557
  0.7403054593299405  0.7846344441651500  0.5833333134607557
  0.2470146170305395  0.2380292193351525  0.4076110121995510
  0.2470146170305395  0.2380292193351525  0.7590556445463167
  0.2470146170305395  0.7380292342604081  0.4076110121995510
  0.2470146170305395  0.7380292342604081  0.7590556445463167
  0.7531157105758716  0.2304162047061200  0.4106285305772749
  0.7531157105758716  0.2304162047061200  0.7560381261685932
  0.7531157105758716  0.7304162196313756  0.4106285305772750
  0.7531157105758716  0.7304162196313756  0.7560381261685932
  0.2436123568515911 -0.0053009027659304  0.3378950157131791
  0.2555046036322294  0.0033740318841858  0.6652184159983895
  0.2436123568515911  0.4946990972532469  0.3378950157131791
  0.2555046036322294  0.5033740319033638  0.6652184159983895
  0.7512712579419735 -0.0062484219811350  0.3196431516201750
  0.7524097387571278  0.0034791894555229  0.6681082554125537
  0.7512712579419735  0.4937515780380424  0.3196431516201750
  0.7524097387571278  0.5034791894747009  0.6681082554125537
 -0.0064595867430577  0.2422966940925289  0.3189620838997081
  0.0013661949625155  0.2531066058114486  0.6677819914621524
 -0.0064595867430577  0.7422966940569029  0.3189620838997081
  0.0013661949625155  0.7531066057758223  0.6677819914621524
  0.5000791510282602  0.2430003136796853  0.3226620140078402
  0.4992177058720692  0.2538134502617046  0.6682052031291168
  0.5000791510282602  0.7430003136440585  0.3226620140078402
  0.4992177058720692  0.7538134502260784  0.6682052031291168
  0.2555046036322294  0.0033740318841858  0.5014482705454734
  0.2436123568515911 -0.0053009027659304  0.8287716410063202
  0.2555046036322294  0.5033740319033638  0.5014482705454734
  0.2436123568515911  0.4946990972532469  0.8287716410063202
  0.7524097387571278  0.0034791894555229  0.4985584311313090
  0.7512712579419735 -0.0062484219811350  0.8470235050993242
  0.7524097387571278  0.5034791894747009  0.4985584311313090
  0.7512712579419735  0.4937515780380424  0.8470235050993242
  0.0013661949625155  0.2531066058114486  0.4988846950817108
 -0.0064595867430577  0.2422966940925290  0.8477045728197911
  0.0013661949625155  0.7531066057758223  0.4988846950817108
 -0.0064595867430577  0.7422966940569029  0.8477045728197911
  0.4992177058720692  0.2538134502617046  0.4984614834147453
  0.5000791510282602  0.2430003136796853  0.8440046427116598
  0.4992177058720692  0.7538134502260784  0.4984614834147453
  0.5000791510282602  0.7430003136440585  0.8440046427116598
  0.0224373334371036  0.2555410787771339  0.4182028565545653
  0.0224373334371036  0.2555410787771339  0.7484638001913022
  0.0224373334371036  0.7555410787415142  0.4182028565545653
  0.0224373334371036  0.7555410787415142  0.7484638001913022
  0.5265614908374943  0.2605922170710938  0.4186356671951943
  0.5265614908374943  0.2605922170710937  0.7480309895506735
  0.5265614908374943  0.7605922170354739  0.4186356671951943
  0.5265614908374943  0.7605922170354739  0.7480309895506735
  0.4843061424852953  0.2429131582991072  0.2479803447970438
  0.4675935664955062  0.2477616047942858  0.5833333134607557
  0.4843061424852953  0.2429131582991072  0.9186863417468119
  0.4843061424852953  0.7429131732243702  0.2479803447970438
  0.4675935664955062  0.7477616197195485  0.5833333134607557
  0.4843061424852953  0.7429131732243702  0.9186863417468119
  0.9764007616712603  0.2441104157846072  0.2444281363429369
  0.9681276043301486  0.2490084061035415  0.5833333134607557
  0.9764007616712603  0.2441104157846072  0.9222385502009186
  0.9764007616712603  0.7441104307098698  0.2444281363429369
  0.9681276043301486  0.7490084210288042  0.5833333134607557
  0.9764007616712603  0.7441104307098698  0.9222385502009186
  0.2963455962494791  0.4966015608621945  0.5833333134607557
  0.2963455962494791  0.9966015608265757  0.5833333134607557
  0.7618262004245341  0.4948358468078204  0.2448682199191655
  0.7768470755893914  0.4987977081603768  0.5833333134607557
  0.7618262004245341  0.4948358468078204  0.9217984666246906
  0.7618262004245341  0.9948358467722007  0.2448682199191655
  0.7768470755893914  0.9987977081247574  0.5833333134607557
  0.7618262004245341  0.9948358467722007  0.9217984666246906
  0.2125244454182437  0.0084206104954535  0.4169436006014341
  0.2125244454182437  0.0084206104954535  0.7497230561444334
  0.2125244454182437  0.5084206074457329  0.4169436006014341
  0.2125244454182437  0.5084206074457329  0.7497230561444334
  0.7345843225761493  0.0056029855991533  0.4179526877569760
  0.7345843225761493  0.0056029855991533  0.7487139689888920
  0.7345843225761493  0.5056029825494326  0.4179526877569760
  0.7345843225761493  0.5056029825494326  0.7487139689888920
  0.3788293669111494  0.1193988708835220  0.3432135092280285
  0.4053862795303921  0.0999487194260553  0.6800855442262320
  0.3788293669111494  0.6193988410905437  0.3432135092280285
  0.4053862795303921  0.5999486896330768  0.6800855442262320
  0.8817556370457967  0.1140763172332344  0.3411970871617463
  0.9048945122842369  0.1007860648888114  0.6760286654980463
  0.8817556370457967  0.6140762874402553  0.3411970871617463
  0.9048945122842369  0.6007860350958327  0.6760286654980463
  0.1144925528561622  0.3768669375425772  0.3301185086345244
  0.1019822017696898  0.4014787629342673  0.6548240663443401
  0.1144925528561622  0.8768670269434264  0.3301185086345244
  0.1019822017696898  0.9014788523351164  0.6548240663443401
  0.6253545316813749  0.3681875206700486  0.3356178473537708
  0.6000690086301699  0.4012384162862888  0.6560283826803812
  0.6253545316813749  0.8681876100708983  0.3356178473537708
  0.6000690086301699  0.9012385056871380  0.6560283826803812
  0.1337623684734466  0.1340084781830304  0.3263022369004628
  0.1532342593562100  0.1499142122727254  0.6550533642480850
  0.1337623684734466  0.6340085080143717  0.3263022369004628
  0.1532342593562100  0.6499142421040667  0.6550533642480850
  0.6251993000731079  0.1202129898121463  0.3361693194203141
  0.6522082126353677  0.1517302706031115  0.6568487332445698
  0.6251993000731079  0.6202130196434870  0.3361693194203141
  0.6522082126353677  0.6517303004344523  0.6568487332445698
  0.3712787987048749  0.3690474219303698  0.3422353528082029
  0.3458884266820366  0.3506053870259404  0.6785186719270134
  0.3712787987048749  0.8690473921373979  0.3422353528082029
  0.3458884266820366  0.8506053572329694  0.6785186719270134
  0.8664240279622905  0.3599522354246577  0.3402099346869650
  0.8486408472156957  0.3518257359301313  0.6770833989748867
  0.8664240279622905  0.8599522056316861  0.3402099346869650
  0.8486408472156957  0.8518257061371596  0.6770833989748867
  0.1019822017696898  0.4014787629342673  0.5118426201995228
  0.1144925528561622  0.3768669375425772  0.8365481182869940
  0.1019822017696898  0.9014788523351164  0.5118426201995228
  0.1144925528561622  0.8768670269434264  0.8365481182869940
  0.6000690086301699  0.4012384162862888  0.5106383038634816
  0.6253545316813749  0.3681875206700486  0.8310487795677477
  0.6000690086301699  0.9012385056871380  0.5106383038634816
  0.6253545316813749  0.8681876100708983  0.8310487795677477
  0.4053862795303921  0.0999487194260553  0.4865811423176305
  0.3788293669111494  0.1193988708835220  0.8234531474914704
  0.4053862795303921  0.5999486896330768  0.4865811423176305
  0.3788293669111494  0.6193988410905437  0.8234531474914704
  0.9048945122842369  0.1007860648888114  0.4906380210458168
  0.8817556370457967  0.1140763172332344  0.8254695695577529
  0.9048945122842369  0.6007860350958327  0.4906380210458168
  0.8817556370457967  0.6140762874402553  0.8254695695577529
  0.3458884266820366  0.3506053870259404  0.4881480146168490
  0.3712787987048749  0.3690474219303698  0.8244313039112965
  0.3458884266820366  0.8506053572329694  0.4881480146168490
  0.3712787987048749  0.8690473921373979  0.8244313039112965
  0.8486408472156957  0.3518257359301313  0.4895832875689762
  0.8664240279622905  0.3599522354246577  0.8264567220325343
  0.8486408472156957  0.8518257061371596  0.4895832875689762
  0.8664240279622905  0.8599522056316861  0.8264567220325343
  0.1532342593562100  0.1499142122727254  0.5116133222957778
  0.1337623684734466  0.1340084781830304  0.8403643900210559
  0.1532342593562100  0.6499142421040667  0.5116133222957778
  0.1337623684734466  0.6340085080143717  0.8403643900210559
  0.6522082126353677  0.1517302706031115  0.5098179532992930
  0.6251993000731079  0.1202129898121463  0.8304973075012049
  0.6522082126353677  0.6517303004344523  0.5098179532992930
  0.6251993000731079  0.6202130196434870  0.8304973075012049
 
  0.00000000E+00  0.00000000E+00  0.00000000E+00
  0.00000000E+00  0.00000000E+00  0.00000000E+00
  0.00000000E+00  0.00000000E+00  0.00000000E+00
  0.00000000E+00  0.00000000E+00  0.00000000E+00
  0.00000000E+00  0.00000000E+00  0.00000000E+00
  0.00000000E+00  0.00000000E+00  0.00000000E+00
  0.00000000E+00  0.00000000E+00  0.00000000E+00
  0.00000000E+00  0.00000000E+00  0.00000000E+00
  0.00000000E+00  0.00000000E+00  0.00000000E+00
  0.00000000E+00  0.00000000E+00  0.00000000E+00
  0.00000000E+00  0.00000000E+00  0.00000000E+00
  0.00000000E+00  0.00000000E+00  0.00000000E+00
  0.00000000E+00  0.00000000E+00  0.00000000E+00
  0.00000000E+00  0.00000000E+00  0.00000000E+00
  0.00000000E+00  0.00000000E+00  0.00000000E+00
  0.00000000E+00  0.00000000E+00  0.00000000E+00
  0.00000000E+00  0.00000000E+00  0.00000000E+00
  0.00000000E+00  0.00000000E+00  0.00000000E+00
  0.00000000E+00  0.00000000E+00  0.00000000E+00
  0.00000000E+00  0.00000000E+00  0.00000000E+00
  0.00000000E+00  0.00000000E+00  0.00000000E+00
  0.00000000E+00  0.00000000E+00  0.00000000E+00
  0.00000000E+00  0.00000000E+00  0.00000000E+00
  0.00000000E+00  0.00000000E+00  0.00000000E+00
  0.00000000E+00  0.00000000E+00  0.00000000E+00
  0.00000000E+00  0.00000000E+00  0.00000000E+00
  0.00000000E+00  0.00000000E+00  0.00000000E+00
  0.00000000E+00  0.00000000E+00  0.00000000E+00
  0.00000000E+00  0.00000000E+00  0.00000000E+00
  0.00000000E+00  0.00000000E+00  0.00000000E+00
  0.00000000E+00  0.00000000E+00  0.00000000E+00
  0.00000000E+00  0.00000000E+00  0.00000000E+00
  0.00000000E+00  0.00000000E+00  0.00000000E+00
  0.00000000E+00  0.00000000E+00  0.00000000E+00
  0.00000000E+00  0.00000000E+00  0.00000000E+00
  0.00000000E+00  0.00000000E+00  0.00000000E+00
  0.00000000E+00  0.00000000E+00  0.00000000E+00
  0.00000000E+00  0.00000000E+00  0.00000000E+00
  0.00000000E+00  0.00000000E+00  0.00000000E+00
  0.00000000E+00  0.00000000E+00  0.00000000E+00
  0.00000000E+00  0.00000000E+00  0.00000000E+00
  0.00000000E+00  0.00000000E+00  0.00000000E+00
  0.00000000E+00  0.00000000E+00  0.00000000E+00
  0.00000000E+00  0.00000000E+00  0.00000000E+00
  0.00000000E+00  0.00000000E+00  0.00000000E+00
  0.00000000E+00  0.00000000E+00  0.00000000E+00
  0.00000000E+00  0.00000000E+00  0.00000000E+00
  0.00000000E+00  0.00000000E+00  0.00000000E+00
  0.00000000E+00  0.00000000E+00  0.00000000E+00
  0.00000000E+00  0.00000000E+00  0.00000000E+00
  0.00000000E+00  0.00000000E+00  0.00000000E+00
  0.00000000E+00  0.00000000E+00  0.00000000E+00
  0.00000000E+00  0.00000000E+00  0.00000000E+00
  0.00000000E+00  0.00000000E+00  0.00000000E+00
  0.00000000E+00  0.00000000E+00  0.00000000E+00
  0.00000000E+00  0.00000000E+00  0.00000000E+00
  0.00000000E+00  0.00000000E+00  0.00000000E+00
  0.00000000E+00  0.00000000E+00  0.00000000E+00
  0.00000000E+00  0.00000000E+00  0.00000000E+00
  0.00000000E+00  0.00000000E+00  0.00000000E+00
  0.00000000E+00  0.00000000E+00  0.00000000E+00
  0.00000000E+00  0.00000000E+00  0.00000000E+00
  0.00000000E+00  0.00000000E+00  0.00000000E+00
  0.00000000E+00  0.00000000E+00  0.00000000E+00
  0.00000000E+00  0.00000000E+00  0.00000000E+00
  0.00000000E+00  0.00000000E+00  0.00000000E+00
  0.00000000E+00  0.00000000E+00  0.00000000E+00
  0.00000000E+00  0.00000000E+00  0.00000000E+00
  0.00000000E+00  0.00000000E+00  0.00000000E+00
  0.00000000E+00  0.00000000E+00  0.00000000E+00
  0.00000000E+00  0.00000000E+00  0.00000000E+00
  0.00000000E+00  0.00000000E+00  0.00000000E+00
  0.00000000E+00  0.00000000E+00  0.00000000E+00
  0.00000000E+00  0.00000000E+00  0.00000000E+00
  0.00000000E+00  0.00000000E+00  0.00000000E+00
  0.00000000E+00  0.00000000E+00  0.00000000E+00
  0.00000000E+00  0.00000000E+00  0.00000000E+00
  0.00000000E+00  0.00000000E+00  0.00000000E+00
  0.00000000E+00  0.00000000E+00  0.00000000E+00
  0.00000000E+00  0.00000000E+00  0.00000000E+00
  0.00000000E+00  0.00000000E+00  0.00000000E+00
  0.00000000E+00  0.00000000E+00  0.00000000E+00
  0.00000000E+00  0.00000000E+00  0.00000000E+00
  0.00000000E+00  0.00000000E+00  0.00000000E+00
  0.00000000E+00  0.00000000E+00  0.00000000E+00
  0.00000000E+00  0.00000000E+00  0.00000000E+00
  0.00000000E+00  0.00000000E+00  0.00000000E+00
  0.00000000E+00  0.00000000E+00  0.00000000E+00
  0.00000000E+00  0.00000000E+00  0.00000000E+00
  0.00000000E+00  0.00000000E+00  0.00000000E+00
  0.00000000E+00  0.00000000E+00  0.00000000E+00
  0.00000000E+00  0.00000000E+00  0.00000000E+00
  0.00000000E+00  0.00000000E+00  0.00000000E+00
  0.00000000E+00  0.00000000E+00  0.00000000E+00
  0.00000000E+00  0.00000000E+00  0.00000000E+00
  0.00000000E+00  0.00000000E+00  0.00000000E+00
  0.00000000E+00  0.00000000E+00  0.00000000E+00
  0.00000000E+00  0.00000000E+00  0.00000000E+00
  0.00000000E+00  0.00000000E+00  0.00000000E+00
  0.00000000E+00  0.00000000E+00  0.00000000E+00
  0.00000000E+00  0.00000000E+00  0.00000000E+00
  0.00000000E+00  0.00000000E+00  0.00000000E+00
  0.00000000E+00  0.00000000E+00  0.00000000E+00
  0.00000000E+00  0.00000000E+00  0.00000000E+00
  0.00000000E+00  0.00000000E+00  0.00000000E+00
  0.00000000E+00  0.00000000E+00  0.00000000E+00
  0.00000000E+00  0.00000000E+00  0.00000000E+00
  0.00000000E+00  0.00000000E+00  0.00000000E+00
  0.00000000E+00  0.00000000E+00  0.00000000E+00
  0.00000000E+00  0.00000000E+00  0.00000000E+00
  0.00000000E+00  0.00000000E+00  0.00000000E+00
  0.00000000E+00  0.00000000E+00  0.00000000E+00
  0.00000000E+00  0.00000000E+00  0.00000000E+00
  0.00000000E+00  0.00000000E+00  0.00000000E+00
  0.00000000E+00  0.00000000E+00  0.00000000E+00
  0.00000000E+00  0.00000000E+00  0.00000000E+00
  0.00000000E+00  0.00000000E+00  0.00000000E+00
  0.00000000E+00  0.00000000E+00  0.00000000E+00
  0.00000000E+00  0.00000000E+00  0.00000000E+00
  0.00000000E+00  0.00000000E+00  0.00000000E+00
  0.00000000E+00  0.00000000E+00  0.00000000E+00
  0.00000000E+00  0.00000000E+00  0.00000000E+00
  0.00000000E+00  0.00000000E+00  0.00000000E+00
  0.00000000E+00  0.00000000E+00  0.00000000E+00
  0.00000000E+00  0.00000000E+00  0.00000000E+00
  0.00000000E+00  0.00000000E+00  0.00000000E+00
  0.00000000E+00  0.00000000E+00  0.00000000E+00
  0.00000000E+00  0.00000000E+00  0.00000000E+00
  0.00000000E+00  0.00000000E+00  0.00000000E+00
  0.00000000E+00  0.00000000E+00  0.00000000E+00
  0.00000000E+00  0.00000000E+00  0.00000000E+00
  0.00000000E+00  0.00000000E+00  0.00000000E+00
  0.00000000E+00  0.00000000E+00  0.00000000E+00
  0.00000000E+00  0.00000000E+00  0.00000000E+00
  0.00000000E+00  0.00000000E+00  0.00000000E+00
  0.00000000E+00  0.00000000E+00  0.00000000E+00
  0.00000000E+00  0.00000000E+00  0.00000000E+00
  0.00000000E+00  0.00000000E+00  0.00000000E+00
  0.00000000E+00  0.00000000E+00  0.00000000E+00
  0.00000000E+00  0.00000000E+00  0.00000000E+00
  0.00000000E+00  0.00000000E+00  0.00000000E+00
  0.00000000E+00  0.00000000E+00  0.00000000E+00
  0.00000000E+00  0.00000000E+00  0.00000000E+00
  0.00000000E+00  0.00000000E+00  0.00000000E+00
  0.00000000E+00  0.00000000E+00  0.00000000E+00
  0.00000000E+00  0.00000000E+00  0.00000000E+00
  0.00000000E+00  0.00000000E+00  0.00000000E+00
  0.00000000E+00  0.00000000E+00  0.00000000E+00
  0.00000000E+00  0.00000000E+00  0.00000000E+00
  0.00000000E+00  0.00000000E+00  0.00000000E+00
  0.00000000E+00  0.00000000E+00  0.00000000E+00
  0.00000000E+00  0.00000000E+00  0.00000000E+00
  0.00000000E+00  0.00000000E+00  0.00000000E+00
  0.00000000E+00  0.00000000E+00  0.00000000E+00
  0.00000000E+00  0.00000000E+00  0.00000000E+00
  0.00000000E+00  0.00000000E+00  0.00000000E+00
