This file is generated by VASPKIT code  
   1.00000000000000     
    17.3823947905999994    0.0000000000000000    0.0000000000000000
     0.0000000000000000   18.2475891113000017    0.0000000000000000
     0.0000000000000000    0.0000000000000000   40.0000000000000000
   Cs   Pb   I 
    24    32    84
Direct
  0.4884193398889006  0.4626388568920860  0.3952665835598589
  0.4884193398889006  0.4626388568920860  0.7107926100401376
  0.4884193398889006  0.9626388569112703  0.3952665835598589
  0.4884193398889006  0.9626388569112703  0.7107926100401376
  0.9782588182712829  0.4655304088574740  0.3998781048400648
  0.9782588182712829  0.4655304088574740  0.7061810887599320
  0.9782588182712829  0.9655304088766585  0.3998781048400648
  0.9782588182712829  0.9655304088766585  0.7061810887599320
  0.0099514827397679  0.0372998104957005  0.5530295968000019
  0.0099514827397679  0.5372998067335618  0.5530295968000019
  0.5125680522812217  0.0350723961149886  0.5530295968000019
  0.5125680522812217  0.5350723923528496  0.5530295968000019
  0.2362026391137598  0.2862109127744641  0.5530295968000019
  0.2362026391137598  0.7862109127936414  0.5530295968000019
  0.7348014570501052  0.2847799098473361  0.5530295968000019
  0.7348014570501052  0.7847799098665134  0.5530295968000019
  0.2660702966488488  0.2164783871858891  0.3935961162427464
  0.2660702966488488  0.2164783871858891  0.7124630773572506
  0.2660702966488488  0.7164783872050668  0.3935961162427464
  0.2660702966488488  0.7164783872050668  0.7124630773572506
  0.7624107455697863  0.2190125215963313  0.3919898008129714
  0.7624107455697863  0.2190125215963313  0.7140693927870251
  0.7624107455697863  0.7190125216155089  0.3919898008129714
  0.7624107455697863  0.7190125216155089  0.7140693927870251
  0.2604373363257735  0.0068198276809845  0.3190561510000255
  0.2492224160323186  0.0014270482732017  0.6315739778622962
  0.2604373363257735  0.5068198277001617  0.3190561510000255
  0.2492224160323186  0.5014270482923791  0.6315739778622962
  0.7402418676005071 -0.0037437941131952  0.3172332447007623
  0.7475324972209195  0.0011082807148645  0.6312086024745602
  0.7402418676005071  0.4962562059059822  0.3172332447007623
  0.7475324972209195  0.5011082807340422  0.6312086024745602
 -0.0006001522448924  0.2339886891443402  0.3191714285999393
 -0.0017489848661244  0.2516979545817945  0.6312354386371166
 -0.0006001522448924  0.7339886891087135  0.3191714285999393
 -0.0017489848661244  0.7516979545461676  0.6312354386371166
  0.5127310053720695  0.2523739218528483  0.3169979003328233
  0.4969753893737826  0.2502968426993527  0.6313841711783381
  0.5127310053720695  0.7523739218172211  0.3169979003328233
  0.4969753893737826  0.7502968426637255  0.6313841711783381
  0.2492224160323186  0.0014270482732017  0.4744851859627052
  0.2604373363257735  0.0068198276809845  0.7870030425999777
  0.2492224160323186  0.5014270482923791  0.4744851859627052
  0.2604373363257735  0.5068198277001617  0.7870030425999777
  0.7475324972209195  0.0011082807148645  0.4748505613504412
  0.7402418676005071 -0.0037437941131952  0.7888259488992418
  0.7475324972209195  0.5011082807340422  0.4748505613504412
  0.7402418676005071  0.4962562059059822  0.7888259488992418
 -0.0017489848661244  0.2516979545817945  0.4748237251878848
 -0.0006001522448924  0.2339886891443402  0.7868877650000649
 -0.0017489848661244  0.7516979545461676  0.4748237251878848
 -0.0006001522448924  0.7339886891087135  0.7868877650000649
  0.4969753893737826  0.2502968426993527  0.4746749926466635
  0.5127310053720695  0.2523739218528483  0.7890612932671811
  0.4969753893737826  0.7502968426637255  0.4746749926466635
  0.5127310053720695  0.7523739218172211  0.7890612932671811
  0.0419854551720902  0.2575259236035797  0.3923145045601119
  0.0419854551720902  0.2575259236035797  0.7137446890398844
  0.0419854551720902  0.7575259235679600  0.3923145045601119
  0.0419854551720902  0.7575259235679600  0.7137446890398844
  0.5372226360042197  0.2520097794438845  0.3926034301995971
  0.5372226360042197  0.2520097794438845  0.7134557634003997
  0.5372226360042197  0.7520097794082643  0.3926034301995971
  0.5372226360042197  0.7520097794082643  0.7134557634003997
  0.4616684356936844  0.2460734630152094  0.5530295968000019
  0.4616684356936844  0.7460734630343943  0.5530295968000019
  0.9617609791614173  0.2484483788017610  0.5530295968000019
  0.9617609791614173  0.7484483788209457  0.5530295968000019
  0.2863363204456192  0.4973235783303983  0.5530295968000019
  0.2863363204456192  0.9973235782947785  0.5530295968000019
  0.7832622018018779  0.4965359832765537  0.5530295968000019
  0.7832622018018779  0.9965359832409342  0.5530295968000019
  0.2059945234497828  0.0026286325276833  0.3916298865494973
  0.2059945234497828  0.0026286325276833  0.7144293070504991
  0.2059945234497828  0.5026286294779626  0.3916298865494973
  0.2059945234497828  0.5026286294779626  0.7144293070504991
  0.7133433410022710  0.0033084035023855  0.3926869616299718
  0.7133433410022710  0.0033084035023855  0.7133722319700249
  0.7133433410022710  0.5033084004526651  0.3926869616299718
  0.7133433410022710  0.5033084004526651  0.7133722319700249
  0.3998293102459619  0.1013074124727454  0.3297026989046321
  0.3990578963386138  0.1002754623112727  0.6453999637518353
  0.3998293102459619  0.6013073826797667  0.3297026989046321
  0.3990578963386138  0.6002754325182938  0.6453999637518353
  0.9025878209498006  0.0986828046137283  0.3295712151106948
  0.8964808442518605  0.1049830437176897  0.6433974344890763
  0.9025878209498006  0.5986827748207495  0.3295712151106948
  0.8964808442518605  0.6049830139247109  0.6433974344890763
  0.0962021922996701  0.4025969912209724  0.6206886521559543
  0.0962021922996701  0.9025970210523132  0.6206886521559543
  0.5929183648013142  0.4044533780742665  0.3028743039884864
  0.5969077353563178  0.4002249883404840  0.6210689537014977
  0.5929183648013142  0.9044534079056078  0.3028743039884864
  0.5969077353563178  0.9002250181718252  0.6210689537014977
  0.1564017623461047  0.1524936207595441  0.3033081626320405
  0.1498527546595324  0.1516497571783055  0.6206981082009871
  0.1564017623461047  0.6524936505908853  0.3033081626320405
  0.1498527546595324  0.6516497870096465  0.6206981082009871
  0.6596076551414291  0.1538597694640686  0.3040022004369355
  0.6482730610400662  0.1505701409670036  0.6207712969198117
  0.6596076551414291  0.6538597992954098  0.3040022004369355
  0.6482730610400662  0.6505701707983441  0.6207712969198117
  0.3528569750674233  0.3548628165719190  0.3273127299599320
  0.3465337811996828  0.3513269267257651  0.6444896318321094
  0.3528569750674233  0.8548627867789469  0.3273127299599320
  0.3465337811996828  0.8513268969327934  0.6444896318321094
  0.8628903602452846  0.3582749339856618  0.3273961501431698
  0.8461391715959941  0.3500050648979334  0.6438390014242110
  0.8628903602452846  0.8582749041926901  0.3273961501431698
  0.8461391715959941  0.8500050351049617  0.6438390014242110
  0.0962021922996701  0.4025969912209724  0.4853704818440447
  0.0962021922996701  0.9025970210523132  0.4853704818440447
  0.5969077353563178  0.4002249883404840  0.4849901802985011
  0.5929183648013142  0.4044533780742665  0.8031848598115191
  0.5969077353563178  0.9002250181718252  0.4849901802985011
  0.5929183648013142  0.9044534079056078  0.8031848598115191
  0.3990578963386138  0.1002754623112727  0.4606592000481695
  0.3998293102459619  0.1013074124727454  0.7763564351203710
  0.3990578963386138  0.6002754325182938  0.4606592000481695
  0.3998293102459619  0.6013073826797667  0.7763564351203710
  0.8964808442518605  0.1049830437176897  0.4626617293109281
  0.9025878209498006  0.0986828046137283  0.7764879189143079
  0.8964808442518605  0.6049830139247109  0.4626617293109281
  0.9025878209498006  0.5986827748207495  0.7764879189143079
  0.3465337811996828  0.3513269267257651  0.4615695319678956
  0.3528569750674233  0.3548628165719190  0.7787464040650712
  0.3465337811996828  0.8513268969327934  0.4615695319678956
  0.3528569750674233  0.8548627867789469  0.7787464040650712
  0.8461391715959941  0.3500050648979334  0.4622201623757938
  0.8628903602452846  0.3582749339856618  0.7786629838818327
  0.8461391715959941  0.8500050351049617  0.4622201623757938
  0.8628903602452846  0.8582749041926901  0.7786629838818327
  0.1498527546595324  0.1516497571783055  0.4853610257990114
  0.1564017623461047  0.1524936207595441  0.8027510011679642
  0.1498527546595324  0.6516497870096465  0.4853610257990114
  0.1564017623461047  0.6524936505908853  0.8027510011679642
  0.6482730610400662  0.1505701409670036  0.4852878370801872
  0.6596076551414291  0.1538597694640686  0.8020569633630693
  0.6482730610400662  0.6505701707983441  0.4852878370801872
  0.6596076551414291  0.6538597992954098  0.8020569633630693
 
  0.00000000E+00  0.00000000E+00  0.00000000E+00
  0.00000000E+00  0.00000000E+00  0.00000000E+00
  0.00000000E+00  0.00000000E+00  0.00000000E+00
  0.00000000E+00  0.00000000E+00  0.00000000E+00
  0.00000000E+00  0.00000000E+00  0.00000000E+00
  0.00000000E+00  0.00000000E+00  0.00000000E+00
  0.00000000E+00  0.00000000E+00  0.00000000E+00
  0.00000000E+00  0.00000000E+00  0.00000000E+00
  0.00000000E+00  0.00000000E+00  0.00000000E+00
  0.00000000E+00  0.00000000E+00  0.00000000E+00
  0.00000000E+00  0.00000000E+00  0.00000000E+00
  0.00000000E+00  0.00000000E+00  0.00000000E+00
  0.00000000E+00  0.00000000E+00  0.00000000E+00
  0.00000000E+00  0.00000000E+00  0.00000000E+00
  0.00000000E+00  0.00000000E+00  0.00000000E+00
  0.00000000E+00  0.00000000E+00  0.00000000E+00
  0.00000000E+00  0.00000000E+00  0.00000000E+00
  0.00000000E+00  0.00000000E+00  0.00000000E+00
  0.00000000E+00  0.00000000E+00  0.00000000E+00
  0.00000000E+00  0.00000000E+00  0.00000000E+00
  0.00000000E+00  0.00000000E+00  0.00000000E+00
  0.00000000E+00  0.00000000E+00  0.00000000E+00
  0.00000000E+00  0.00000000E+00  0.00000000E+00
  0.00000000E+00  0.00000000E+00  0.00000000E+00
  0.00000000E+00  0.00000000E+00  0.00000000E+00
  0.00000000E+00  0.00000000E+00  0.00000000E+00
  0.00000000E+00  0.00000000E+00  0.00000000E+00
  0.00000000E+00  0.00000000E+00  0.00000000E+00
  0.00000000E+00  0.00000000E+00  0.00000000E+00
  0.00000000E+00  0.00000000E+00  0.00000000E+00
  0.00000000E+00  0.00000000E+00  0.00000000E+00
  0.00000000E+00  0.00000000E+00  0.00000000E+00
  0.00000000E+00  0.00000000E+00  0.00000000E+00
  0.00000000E+00  0.00000000E+00  0.00000000E+00
  0.00000000E+00  0.00000000E+00  0.00000000E+00
  0.00000000E+00  0.00000000E+00  0.00000000E+00
  0.00000000E+00  0.00000000E+00  0.00000000E+00
  0.00000000E+00  0.00000000E+00  0.00000000E+00
  0.00000000E+00  0.00000000E+00  0.00000000E+00
  0.00000000E+00  0.00000000E+00  0.00000000E+00
  0.00000000E+00  0.00000000E+00  0.00000000E+00
  0.00000000E+00  0.00000000E+00  0.00000000E+00
  0.00000000E+00  0.00000000E+00  0.00000000E+00
  0.00000000E+00  0.00000000E+00  0.00000000E+00
  0.00000000E+00  0.00000000E+00  0.00000000E+00
  0.00000000E+00  0.00000000E+00  0.00000000E+00
  0.00000000E+00  0.00000000E+00  0.00000000E+00
  0.00000000E+00  0.00000000E+00  0.00000000E+00
  0.00000000E+00  0.00000000E+00  0.00000000E+00
  0.00000000E+00  0.00000000E+00  0.00000000E+00
  0.00000000E+00  0.00000000E+00  0.00000000E+00
  0.00000000E+00  0.00000000E+00  0.00000000E+00
  0.00000000E+00  0.00000000E+00  0.00000000E+00
  0.00000000E+00  0.00000000E+00  0.00000000E+00
  0.00000000E+00  0.00000000E+00  0.00000000E+00
  0.00000000E+00  0.00000000E+00  0.00000000E+00
  0.00000000E+00  0.00000000E+00  0.00000000E+00
  0.00000000E+00  0.00000000E+00  0.00000000E+00
  0.00000000E+00  0.00000000E+00  0.00000000E+00
  0.00000000E+00  0.00000000E+00  0.00000000E+00
  0.00000000E+00  0.00000000E+00  0.00000000E+00
  0.00000000E+00  0.00000000E+00  0.00000000E+00
  0.00000000E+00  0.00000000E+00  0.00000000E+00
  0.00000000E+00  0.00000000E+00  0.00000000E+00
  0.00000000E+00  0.00000000E+00  0.00000000E+00
  0.00000000E+00  0.00000000E+00  0.00000000E+00
  0.00000000E+00  0.00000000E+00  0.00000000E+00
  0.00000000E+00  0.00000000E+00  0.00000000E+00
  0.00000000E+00  0.00000000E+00  0.00000000E+00
  0.00000000E+00  0.00000000E+00  0.00000000E+00
  0.00000000E+00  0.00000000E+00  0.00000000E+00
  0.00000000E+00  0.00000000E+00  0.00000000E+00
  0.00000000E+00  0.00000000E+00  0.00000000E+00
  0.00000000E+00  0.00000000E+00  0.00000000E+00
  0.00000000E+00  0.00000000E+00  0.00000000E+00
  0.00000000E+00  0.00000000E+00  0.00000000E+00
  0.00000000E+00  0.00000000E+00  0.00000000E+00
  0.00000000E+00  0.00000000E+00  0.00000000E+00
  0.00000000E+00  0.00000000E+00  0.00000000E+00
  0.00000000E+00  0.00000000E+00  0.00000000E+00
  0.00000000E+00  0.00000000E+00  0.00000000E+00
  0.00000000E+00  0.00000000E+00  0.00000000E+00
  0.00000000E+00  0.00000000E+00  0.00000000E+00
  0.00000000E+00  0.00000000E+00  0.00000000E+00
  0.00000000E+00  0.00000000E+00  0.00000000E+00
  0.00000000E+00  0.00000000E+00  0.00000000E+00
  0.00000000E+00  0.00000000E+00  0.00000000E+00
  0.00000000E+00  0.00000000E+00  0.00000000E+00
  0.00000000E+00  0.00000000E+00  0.00000000E+00
  0.00000000E+00  0.00000000E+00  0.00000000E+00
  0.00000000E+00  0.00000000E+00  0.00000000E+00
  0.00000000E+00  0.00000000E+00  0.00000000E+00
  0.00000000E+00  0.00000000E+00  0.00000000E+00
  0.00000000E+00  0.00000000E+00  0.00000000E+00
  0.00000000E+00  0.00000000E+00  0.00000000E+00
  0.00000000E+00  0.00000000E+00  0.00000000E+00
  0.00000000E+00  0.00000000E+00  0.00000000E+00
  0.00000000E+00  0.00000000E+00  0.00000000E+00
  0.00000000E+00  0.00000000E+00  0.00000000E+00
  0.00000000E+00  0.00000000E+00  0.00000000E+00
  0.00000000E+00  0.00000000E+00  0.00000000E+00
  0.00000000E+00  0.00000000E+00  0.00000000E+00
  0.00000000E+00  0.00000000E+00  0.00000000E+00
  0.00000000E+00  0.00000000E+00  0.00000000E+00
  0.00000000E+00  0.00000000E+00  0.00000000E+00
  0.00000000E+00  0.00000000E+00  0.00000000E+00
  0.00000000E+00  0.00000000E+00  0.00000000E+00
  0.00000000E+00  0.00000000E+00  0.00000000E+00
  0.00000000E+00  0.00000000E+00  0.00000000E+00
  0.00000000E+00  0.00000000E+00  0.00000000E+00
  0.00000000E+00  0.00000000E+00  0.00000000E+00
  0.00000000E+00  0.00000000E+00  0.00000000E+00
  0.00000000E+00  0.00000000E+00  0.00000000E+00
  0.00000000E+00  0.00000000E+00  0.00000000E+00
  0.00000000E+00  0.00000000E+00  0.00000000E+00
  0.00000000E+00  0.00000000E+00  0.00000000E+00
  0.00000000E+00  0.00000000E+00  0.00000000E+00
  0.00000000E+00  0.00000000E+00  0.00000000E+00
  0.00000000E+00  0.00000000E+00  0.00000000E+00
  0.00000000E+00  0.00000000E+00  0.00000000E+00
  0.00000000E+00  0.00000000E+00  0.00000000E+00
  0.00000000E+00  0.00000000E+00  0.00000000E+00
  0.00000000E+00  0.00000000E+00  0.00000000E+00
  0.00000000E+00  0.00000000E+00  0.00000000E+00
  0.00000000E+00  0.00000000E+00  0.00000000E+00
  0.00000000E+00  0.00000000E+00  0.00000000E+00
  0.00000000E+00  0.00000000E+00  0.00000000E+00
  0.00000000E+00  0.00000000E+00  0.00000000E+00
  0.00000000E+00  0.00000000E+00  0.00000000E+00
  0.00000000E+00  0.00000000E+00  0.00000000E+00
  0.00000000E+00  0.00000000E+00  0.00000000E+00
  0.00000000E+00  0.00000000E+00  0.00000000E+00
  0.00000000E+00  0.00000000E+00  0.00000000E+00
  0.00000000E+00  0.00000000E+00  0.00000000E+00
  0.00000000E+00  0.00000000E+00  0.00000000E+00
  0.00000000E+00  0.00000000E+00  0.00000000E+00
  0.00000000E+00  0.00000000E+00  0.00000000E+00
  0.00000000E+00  0.00000000E+00  0.00000000E+00
  0.00000000E+00  0.00000000E+00  0.00000000E+00
  0.00000000E+00  0.00000000E+00  0.00000000E+00
