This file is generated by VASPKIT code  
   1.00000000000000     
    12.6406764983999995    0.0000000000000000    0.0000000000000000
     0.0000000000000000   18.2475891113000017    0.0000000000000000
     0.0000000000000000    0.0000000000000000   50.0000000000000000
   Cs   Pb   I 
    20    24    76
Direct
  0.2500000000316405  0.4967337017322671  0.6996899510503577
  0.2500000000316405  0.9680265758088481  0.7020502952751764
  0.2500000000316405  0.4545670058083912  0.3473663174857980
  0.2500000000316405 -0.0023400240720840  0.3434671584322280
  0.2500000000316405  0.4628896103435121  0.5161573632927340
  0.2500000000316405  0.9675694806452682  0.5172421240271586
  0.7500000000158238  0.0324304653585643  0.5257015324128435
  0.7500000000158238  0.5371103598278896  0.5267862931472681
  0.7500000000158238  0.0023399700759167  0.6994764980077742
  0.7500000000158238  0.5454329643630105  0.6955773389542039
  0.7500000000158238  0.0319733701949845  0.3408933015648278
  0.7500000000158238  0.5032662684391347  0.3432536457896466
  0.7500000000158238  0.2836321697895966  0.6034450348436395
  0.7500000000158238  0.7847238120278693  0.6042738421853476
  0.7500000000158238  0.2881660008437824  0.4278937129734112
  0.7500000000158238  0.7762833098358222  0.4288615936256240
  0.2500000000316405  0.2237166901477363  0.6140820628143780
  0.2500000000316405  0.7118339991397760  0.6150499434665909
  0.2500000000316405  0.2152761879556888  0.4386698142746495
  0.2500000000316405  0.7163678301939612  0.4394986216163572
  0.0014632188174465  0.0019822267971706  0.6085095731083142
  0.0012850365815724  0.4987661066471712  0.6088473985751882
  0.0104843193588959  0.4974806312712223  0.2684999804169086
  0.9895156806411041  0.5025193687671329  0.7744436462230946
  0.9985367811825534  0.9980177732028295  0.4344340535316892
 -0.0012850365815725  0.5012338933911841  0.4340962280648145
  0.9984457490651092  0.2511796125036450  0.5208142503832508
  0.0015542509348905  0.7488203874799134  0.5221293464567535
  0.9998143853947644  0.2462275063005998  0.6939081009954743
  0.0001098862848155  0.7625300399149012  0.6972869192562534
 -0.0001098862848155  0.2374699600686565  0.3456567967837465
  0.0001856146052355  0.7537724936829584  0.3490356150445260
  0.4985367811667296  0.0019822267971706  0.6085095731083142
  0.4987149634026039  0.4987661066471712  0.6088473985751882
  0.4895156806252803  0.4974806312712223  0.2684999804169086
  0.5104843193430721  0.5025193687671329  0.7744436462230946
  0.5014632188016228  0.9980177732028295  0.4344340535316892
  0.5012850365657490  0.5012338933911841  0.4340962280648145
  0.5015542509190670  0.2511796125036450  0.5208142503832508
  0.4984457490492858  0.7488203874799134  0.5221293464567535
  0.5001856145894118  0.2462275063005998  0.6939081009954743
  0.4998901136993608  0.7625300399149012  0.6972869192562534
  0.5001098862689916  0.2374699600686565  0.3456567967837465
  0.4998143853789407  0.7537724936829584  0.3490356150445260
  0.2500000000316405  0.2521604098659216  0.5337812756708766
  0.2500000000316405  0.7590294881863913  0.5368142810730444
  0.2500000000316405  0.2817955636815368  0.6945979431041639
  0.2500000000316405  0.7396836656155031  0.7034700003884904
  0.2500000000316405  0.2407678361111079  0.3599880246356824
  0.2500000000316405  0.7748102620626475  0.3628641416520922
  0.7500000000158238  0.2251897379209106  0.6800795147879029
  0.7500000000158238  0.7592321639272542  0.6829556318043126
  0.7500000000158238  0.2603163343680550  0.3394736858515106
  0.7500000000158238  0.7182044363568256  0.3483457431358373
  0.7500000000158238  0.2409705117971673  0.5061293753869595
  0.7500000000158238  0.7478395901724406  0.5091623807891272
  0.7500000000158238  0.4994713534950482  0.6180587541113467
  0.7500000000158238  0.9957965846093899  0.6210248397871622
  0.7500000000158238  0.5037777029491454  0.2634351448066791
  0.7500000000158238  0.4788344343600999  0.7934830089661926
  0.7500000000158238  0.8660230652375526  0.2858239188868606
  0.7500000000158238  0.1429862567088696  0.7588065654334784
  0.7500000000158238  0.5014840080465794  0.4482288448299047
  0.7500000000158238  0.9876794699200262  0.4485783653350222
  0.2500000000316405  0.0123205927019456  0.5943652911249816
  0.2500000000316405  0.4985159919369787  0.5947148116300990
  0.2500000000316405  0.8570138059131016  0.2841370612065248
  0.2500000000316405  0.1339769973844192  0.7571196779531363
  0.2500000000316405  0.5211655656234579  0.2494606176738109
  0.2500000000316405  0.4962222970344127  0.7795084520333180
  0.2500000000316405  0.0042034780125818  0.4219188464528318
  0.2500000000316405  0.5005286464885105  0.4248849321286474
  0.0445867008065039  0.0986400687439752  0.6632568037613843
  0.0294516352555708  0.5995295393661292  0.6590420311987326
  0.0139628943913792  0.1062677719986817  0.3103143834775658
  0.0302505629407388  0.5877640304966333  0.3184288393192664
  0.0361307255877548  0.0994369549047424  0.4856709009898871
  0.0372061566879792  0.6026776713150073  0.4888564956683526
  0.9627938023015618  0.3973223584807071  0.5540871607716423
  0.9638692334017933  0.9005630152666595  0.5572727554501081
  0.9697493960488021  0.4122359992990812  0.7245147575207381
  0.9860370645981620  0.8937321981727200  0.7326292133624388
  0.9705483237339703  0.4004704904295924  0.3839016550612704
  0.9554132581830370  0.9013599014274264  0.3796868824986185
  0.9620401585905691  0.1474960161173637  0.5736630359522633
  0.9652939433457850  0.6506192742229925  0.5744236484771188
  0.0005281498692213  0.1506860283651761  0.7525562468913186
  0.9548741686391305  0.6479274765584913  0.7484715627950437
  0.9611550937042793  0.1465116878821912  0.3990855612574287
  0.9876048173897535  0.6550259534676065  0.4026660535947599
  0.0123951415997877  0.3449740167037956  0.6402775730452435
  0.0388448652852687  0.8534883419135161  0.6438580653825742
  0.0451257903504101  0.3520724936129103  0.2944721234649519
  0.9994718091203200  0.8493140014305381  0.2903874393686771
  0.0347060156437560  0.3493806959484091  0.4685200079628833
  0.0379598003989718  0.8525040136783506  0.4692806204877387
  0.5372061380813803  0.3973223584807071  0.5540871607716423
  0.5361307069811487  0.9005630152666595  0.5572727554501081
  0.5302505443341400  0.4122359992990812  0.7245147575207381
  0.5139628757847801  0.8937321981727200  0.7326292133624388
  0.5294516166489718  0.4004704904295924  0.3839016550612704
  0.5445866821999050  0.9013599014274264  0.3796868824986185
  0.4554133178475594  0.0986400687439752  0.6632568037613843
  0.4705483833984925  0.5995295393661292  0.6590420311987326
  0.4860371242626840  0.1062677719986817  0.3103143834775658
  0.4697494557133245  0.5877640304966333  0.3184288393192664
  0.4638692930663084  0.0994369549047424  0.4856709009898871
  0.4627938619660841  0.6026776713150073  0.4888564956683526
  0.4876048770542756  0.3449740167037956  0.6402775730452435
  0.4611551533687944  0.8534883419135161  0.6438580653825742
  0.4548742283036533  0.3520724936129103  0.2944721234649519
  0.5005282095337432  0.8493140014305381  0.2903874393686771
  0.4652940030103072  0.3493806959484091  0.4685200079628833
  0.4620402182550913  0.8525040136783506  0.4692806204877387
  0.5379597817923729  0.1474960161173637  0.5736630359522633
  0.5347059970371570  0.6506192742229925  0.5744236484771188
  0.4994717905137206  0.1506860283651761  0.7525562468913186
  0.5451257717438115  0.6479274765584913  0.7484715627950437
  0.5388448466786627  0.1465116878821912  0.3990855612574287
  0.5123951229931886  0.6550259534676065  0.4026660535947599
 
  0.00000000E+00  0.00000000E+00  0.00000000E+00
  0.00000000E+00  0.00000000E+00  0.00000000E+00
  0.00000000E+00  0.00000000E+00  0.00000000E+00
  0.00000000E+00  0.00000000E+00  0.00000000E+00
  0.00000000E+00  0.00000000E+00  0.00000000E+00
  0.00000000E+00  0.00000000E+00  0.00000000E+00
  0.00000000E+00  0.00000000E+00  0.00000000E+00
  0.00000000E+00  0.00000000E+00  0.00000000E+00
  0.00000000E+00  0.00000000E+00  0.00000000E+00
  0.00000000E+00  0.00000000E+00  0.00000000E+00
  0.00000000E+00  0.00000000E+00  0.00000000E+00
  0.00000000E+00  0.00000000E+00  0.00000000E+00
  0.00000000E+00  0.00000000E+00  0.00000000E+00
  0.00000000E+00  0.00000000E+00  0.00000000E+00
  0.00000000E+00  0.00000000E+00  0.00000000E+00
  0.00000000E+00  0.00000000E+00  0.00000000E+00
  0.00000000E+00  0.00000000E+00  0.00000000E+00
  0.00000000E+00  0.00000000E+00  0.00000000E+00
  0.00000000E+00  0.00000000E+00  0.00000000E+00
  0.00000000E+00  0.00000000E+00  0.00000000E+00
  0.00000000E+00  0.00000000E+00  0.00000000E+00
  0.00000000E+00  0.00000000E+00  0.00000000E+00
  0.00000000E+00  0.00000000E+00  0.00000000E+00
  0.00000000E+00  0.00000000E+00  0.00000000E+00
  0.00000000E+00  0.00000000E+00  0.00000000E+00
  0.00000000E+00  0.00000000E+00  0.00000000E+00
  0.00000000E+00  0.00000000E+00  0.00000000E+00
  0.00000000E+00  0.00000000E+00  0.00000000E+00
  0.00000000E+00  0.00000000E+00  0.00000000E+00
  0.00000000E+00  0.00000000E+00  0.00000000E+00
  0.00000000E+00  0.00000000E+00  0.00000000E+00
  0.00000000E+00  0.00000000E+00  0.00000000E+00
  0.00000000E+00  0.00000000E+00  0.00000000E+00
  0.00000000E+00  0.00000000E+00  0.00000000E+00
  0.00000000E+00  0.00000000E+00  0.00000000E+00
  0.00000000E+00  0.00000000E+00  0.00000000E+00
  0.00000000E+00  0.00000000E+00  0.00000000E+00
  0.00000000E+00  0.00000000E+00  0.00000000E+00
  0.00000000E+00  0.00000000E+00  0.00000000E+00
  0.00000000E+00  0.00000000E+00  0.00000000E+00
  0.00000000E+00  0.00000000E+00  0.00000000E+00
  0.00000000E+00  0.00000000E+00  0.00000000E+00
  0.00000000E+00  0.00000000E+00  0.00000000E+00
  0.00000000E+00  0.00000000E+00  0.00000000E+00
  0.00000000E+00  0.00000000E+00  0.00000000E+00
  0.00000000E+00  0.00000000E+00  0.00000000E+00
  0.00000000E+00  0.00000000E+00  0.00000000E+00
  0.00000000E+00  0.00000000E+00  0.00000000E+00
  0.00000000E+00  0.00000000E+00  0.00000000E+00
  0.00000000E+00  0.00000000E+00  0.00000000E+00
  0.00000000E+00  0.00000000E+00  0.00000000E+00
  0.00000000E+00  0.00000000E+00  0.00000000E+00
  0.00000000E+00  0.00000000E+00  0.00000000E+00
  0.00000000E+00  0.00000000E+00  0.00000000E+00
  0.00000000E+00  0.00000000E+00  0.00000000E+00
  0.00000000E+00  0.00000000E+00  0.00000000E+00
  0.00000000E+00  0.00000000E+00  0.00000000E+00
  0.00000000E+00  0.00000000E+00  0.00000000E+00
  0.00000000E+00  0.00000000E+00  0.00000000E+00
  0.00000000E+00  0.00000000E+00  0.00000000E+00
  0.00000000E+00  0.00000000E+00  0.00000000E+00
  0.00000000E+00  0.00000000E+00  0.00000000E+00
  0.00000000E+00  0.00000000E+00  0.00000000E+00
  0.00000000E+00  0.00000000E+00  0.00000000E+00
  0.00000000E+00  0.00000000E+00  0.00000000E+00
  0.00000000E+00  0.00000000E+00  0.00000000E+00
  0.00000000E+00  0.00000000E+00  0.00000000E+00
  0.00000000E+00  0.00000000E+00  0.00000000E+00
  0.00000000E+00  0.00000000E+00  0.00000000E+00
  0.00000000E+00  0.00000000E+00  0.00000000E+00
  0.00000000E+00  0.00000000E+00  0.00000000E+00
  0.00000000E+00  0.00000000E+00  0.00000000E+00
  0.00000000E+00  0.00000000E+00  0.00000000E+00
  0.00000000E+00  0.00000000E+00  0.00000000E+00
  0.00000000E+00  0.00000000E+00  0.00000000E+00
  0.00000000E+00  0.00000000E+00  0.00000000E+00
  0.00000000E+00  0.00000000E+00  0.00000000E+00
  0.00000000E+00  0.00000000E+00  0.00000000E+00
  0.00000000E+00  0.00000000E+00  0.00000000E+00
  0.00000000E+00  0.00000000E+00  0.00000000E+00
  0.00000000E+00  0.00000000E+00  0.00000000E+00
  0.00000000E+00  0.00000000E+00  0.00000000E+00
  0.00000000E+00  0.00000000E+00  0.00000000E+00
  0.00000000E+00  0.00000000E+00  0.00000000E+00
  0.00000000E+00  0.00000000E+00  0.00000000E+00
  0.00000000E+00  0.00000000E+00  0.00000000E+00
  0.00000000E+00  0.00000000E+00  0.00000000E+00
  0.00000000E+00  0.00000000E+00  0.00000000E+00
  0.00000000E+00  0.00000000E+00  0.00000000E+00
  0.00000000E+00  0.00000000E+00  0.00000000E+00
  0.00000000E+00  0.00000000E+00  0.00000000E+00
  0.00000000E+00  0.00000000E+00  0.00000000E+00
  0.00000000E+00  0.00000000E+00  0.00000000E+00
  0.00000000E+00  0.00000000E+00  0.00000000E+00
  0.00000000E+00  0.00000000E+00  0.00000000E+00
  0.00000000E+00  0.00000000E+00  0.00000000E+00
  0.00000000E+00  0.00000000E+00  0.00000000E+00
  0.00000000E+00  0.00000000E+00  0.00000000E+00
  0.00000000E+00  0.00000000E+00  0.00000000E+00
  0.00000000E+00  0.00000000E+00  0.00000000E+00
  0.00000000E+00  0.00000000E+00  0.00000000E+00
  0.00000000E+00  0.00000000E+00  0.00000000E+00
  0.00000000E+00  0.00000000E+00  0.00000000E+00
  0.00000000E+00  0.00000000E+00  0.00000000E+00
  0.00000000E+00  0.00000000E+00  0.00000000E+00
  0.00000000E+00  0.00000000E+00  0.00000000E+00
  0.00000000E+00  0.00000000E+00  0.00000000E+00
  0.00000000E+00  0.00000000E+00  0.00000000E+00
  0.00000000E+00  0.00000000E+00  0.00000000E+00
  0.00000000E+00  0.00000000E+00  0.00000000E+00
  0.00000000E+00  0.00000000E+00  0.00000000E+00
  0.00000000E+00  0.00000000E+00  0.00000000E+00
  0.00000000E+00  0.00000000E+00  0.00000000E+00
  0.00000000E+00  0.00000000E+00  0.00000000E+00
  0.00000000E+00  0.00000000E+00  0.00000000E+00
  0.00000000E+00  0.00000000E+00  0.00000000E+00
  0.00000000E+00  0.00000000E+00  0.00000000E+00
  0.00000000E+00  0.00000000E+00  0.00000000E+00
  0.00000000E+00  0.00000000E+00  0.00000000E+00
  0.00000000E+00  0.00000000E+00  0.00000000E+00
