This file is generated by VASPKIT code  
   1.00000000000000     
    12.6406764983999995    0.0000000000000000    0.0000000000000000
     0.0000000000000016   25.2016296386417515    0.0000000000000000
     0.0000000000000024    1.8348124745969625   55.7578901711374471
   Cs   Pb   I 
    40    32   104
Direct
  0.2500000000316405  0.4970138596274505  0.2403565464553448
  0.2500000000316405  0.5034218609507265  0.4648530786167380
  0.2500000000316405  0.9970138596274500  0.2403565464553448
  0.2500000000316405  0.0034218609507267  0.4648530786167380
  0.2500000000316405  0.2574164921922604  0.1461057206468495
  0.2500000000316405  0.2470090530156196  0.3552709959526104
  0.2500000000316405  0.2556765063061558  0.5782619421748266
  0.2500000000316405  0.7574164921922604  0.1461057206468495
  0.2500000000316405  0.7470090530156197  0.3552709959526104
  0.2500000000316405  0.7556765063061559  0.5782619421748266
  0.7500000000158238  0.0162712647443012  0.2646567603472182
  0.7500000000158238  0.0226792660675702  0.4891532925086186
  0.7500000000158238  0.5162712647443014  0.2646567603472182
  0.7500000000158238  0.5226792660675708  0.4891532925086186
  0.7500000000158238  0.2640166138514989  0.1512478976923431
  0.7500000000158238  0.2726840671420349  0.3742388439145523
  0.7500000000158238  0.2622766279653942  0.5834041192203129
  0.7500000000158238  0.7640166138514988  0.1512478976923431
  0.7500000000158238  0.7726840671420279  0.3742388439145523
  0.7500000000158238  0.7622766279653943  0.5834041192203129
  0.7500000000158238  0.0383289147326850  0.1474012230103003
  0.7500000000158238  0.0352748608441777  0.3704652606375992
  0.7500000000158238  0.0544373789800598  0.5893244656090990
  0.7500000000158238  0.5383289147326847  0.1474012230103003
  0.7500000000158238  0.5352748608441781  0.3704652606375992
  0.7500000000158238  0.5544373789800596  0.5893244656090990
  0.7500000000158238  0.2791760970586449  0.2579415975375032
  0.7500000000158238  0.2866023776730364  0.4819806929046766
  0.7500000000158238  0.7791760970586451  0.2579415975375032
  0.7500000000158238  0.7866023776730361  0.4819806929046766
  0.2500000000316405  0.4652557337090302  0.1401853742606855
  0.2500000000316405  0.4844182518449054  0.3590445792321854
  0.2500000000316405  0.4813641979563980  0.5821086168594840
  0.2500000000316405  0.9652557337090306  0.1401853742606855
  0.2500000000316405  0.9844182518449051  0.3590445792321854
  0.2500000000316405  0.9813641979563984  0.5821086168594840
  0.2500000000316405  0.2330907424449130  0.2475291469634309
  0.2500000000316405  0.2405170230593117  0.4715682423306046
  0.2500000000316405  0.7330907424449135  0.2475291469634309
  0.2500000000316405  0.7405170230593116  0.4715682423306046
  0.0011062213887407  0.3834865906227898  0.3074461196427473
  0.0048476158596367  0.3864495168869003  0.5353387258846846
  0.0011062213887407  0.8834865906227897  0.3074461196427473
  0.0048476158596367  0.8864495168869000  0.5353387258846846
  0.9951523841403634  0.1332436032707544  0.1941711139824782
 -0.0011062213887406  0.1362065295348650  0.4220637202244225
  0.9951523841403634  0.6332436032707547  0.1941711139824782
 -0.0011062213887406  0.6362065295348650  0.4220637202244225
  0.0006186531395324  0.1323500815953670  0.3084607793793138
  0.0043009243439836  0.1378664116093959  0.5370253410273901
  0.0006186531395324  0.6323500815953665  0.3084607793793138
  0.0043009243439836  0.6378664116093959  0.5370253410273901
  0.9956990756560166  0.3818267085482585  0.1924844988397796
  0.9993813468604676  0.3873430385622878  0.4210490604878489
  0.9956990756560166  0.8818267085482587  0.1924844988397796
  0.9993813468604676  0.8873430385622881  0.4210490604878489
  0.4988937785954354  0.3834865906227898  0.3074461196427473
  0.4951523841245394  0.3864495168869003  0.5353387258846846
  0.4988937785954354  0.8834865906227897  0.3074461196427473
  0.4951523841245394  0.8864495168869000  0.5353387258846846
  0.5048476158438128  0.1332436032707544  0.1941711139824782
  0.5011062213729166  0.1362065295348650  0.4220637202244225
  0.5048476158438128  0.6332436032707547  0.1941711139824782
  0.5011062213729166  0.6362065295348650  0.4220637202244225
  0.4993813468446438  0.1323500815953670  0.3084607793793138
  0.4956990756401927  0.1378664116093959  0.5370253410273901
  0.4993813468446438  0.6323500815953665  0.3084607793793138
  0.4956990756401927  0.6378664116093959  0.5370253410273901
  0.5043009243281596  0.3818267085482585  0.1924844988397796
  0.5006186531237086  0.3873430385622878  0.4210490604878489
  0.5043009243281596  0.8818267085482587  0.1924844988397796
  0.5006186531237086  0.8873430385622881  0.4210490604878489
  0.2500000000316405  0.1163568050607203  0.3193431468615983
  0.2500000000316405  0.1187397369925021  0.5484135715820793
  0.2500000000316405  0.6163568050607200  0.3193431468615983
  0.2500000000316405  0.6187397369925018  0.5484135715820793
  0.2500000000316405  0.3643592242793230  0.2002823059951639
  0.2500000000316405  0.3694909359743861  0.4305517586752022
  0.2500000000316405  0.8643592242793233  0.2002823059951639
  0.2500000000316405  0.8694909359743860  0.4305517586752022
  0.7500000000158238  0.4009533756971069  0.1810962683070033
  0.7500000000158238  0.4033363076288816  0.4101666930274846
  0.7500000000158238  0.9009533756971071  0.1810962683070033
  0.7500000000158238  0.9033363076288818  0.4101666930274846
  0.7500000000158238  0.1502021841837873  0.2989580812112659
  0.7500000000158238  0.1553338958788501  0.5292275338912972
  0.7500000000158238  0.6502021841837874  0.2989580812112659
  0.7500000000158238  0.6553338958788500  0.5292275338912972
  0.7500000000158238  0.1108150504541434  0.2060871960289014
  0.7500000000158238  0.1123802818846518  0.4307189363403181
  0.7500000000158238  0.6108150504541431  0.2060871960289014
  0.7500000000158238  0.6123802818846520  0.4307189363403181
  0.7500000000158238  0.3629503438837820  0.3151004949491339
  0.7500000000158238  0.3769280052616945  0.5391011773354722
  0.7500000000158238  0.8629503438837814  0.3151004949491339
  0.7500000000158238  0.8769280052616945  0.5391011773354722
  0.2500000000316405  0.4073128381358895  0.2987908999190709
  0.2500000000316405  0.4088780695663908  0.5234226402304802
  0.2500000000316405  0.9073128381358893  0.2987908999190709
  0.2500000000316405  0.9088780695663911  0.5234226402304802
  0.2500000000316405  0.1427651148959601  0.1904086625316977
  0.2500000000316405  0.1567427762738729  0.4144093449180288
  0.2500000000316405  0.6427651148959603  0.1904086625316977
  0.2500000000316405  0.6567427762738732  0.4144093449180288
  0.0247697914223938  0.3613344913378526  0.1367877633686813
  0.0388024853940985  0.3596720460190500  0.3643153405590025
  0.0364356982934917  0.3643577738060994  0.5906360220550393
  0.0247697914223938  0.8613344913378524  0.1367877633686813
  0.0388024853940985  0.8596720460190505  0.3643153405590025
  0.0364356982934917  0.8643577738060993  0.5906360220550393
  0.0373312196589240  0.1078456745640445  0.2529243529399917
  0.0374281407784140  0.1129204086715098  0.4792951146137703
  0.0373312196589240  0.6078456745640445  0.2529243529399917
  0.0374281407784140  0.6129204086715097  0.4792951146137703
  0.9635643203447553  0.1553353463520739  0.1388738178314219
  0.9611975332441478  0.1600210741391233  0.3651944993274656
  0.9752302272158528  0.1583586288203210  0.5927220765177867
  0.9635643203447553  0.6553353463520740  0.1388738178314219
  0.9611975332441478  0.6600210741391229  0.3651944993274656
  0.9752302272158528  0.6583586288203209  0.5927220765177867
  0.9625718778598329  0.4067727114866707  0.2502147252726905
  0.9626687989793226  0.4118474455941287  0.4765854869464692
  0.9625718778598329  0.9067727114866708  0.2502147252726905
  0.9626687989793226  0.9118474455941289  0.4765854869464692
  0.9604772982361446  0.5075221105748704  0.3203092614608925
  0.9697932227437538  0.5118797300231858  0.5479080412569522
  0.9604772982361446  0.0075221105748703  0.3203092614608925
  0.9697932227437538  0.0118797300231858  0.5479080412569522
  0.9632111097989673  0.2566531993037008  0.2061038010639269
  0.9609074507319517  0.2605855675815439  0.4328099354098617
  0.9632111097989673  0.7566531993037008  0.2061038010639269
  0.9609074507319517  0.7605855675815439  0.4328099354098617
  0.0302067958944925  0.0078133900952896  0.1816017986304535
  0.0395227204021016  0.0121710095436051  0.4092005784265064
  0.0302067958944925  0.5078133900952896  0.1816017986304535
  0.0395227204021016  0.5121710095436049  0.4092005784265064
  0.0390925679062948  0.2591075525364128  0.2966999044582460
  0.0367889088392790  0.2630399208142559  0.5234060388041737
  0.0390925679062948  0.7591075525364127  0.2966999044582460
  0.0367889088392790  0.7630399208142559  0.5234060388041737
  0.5364356796868923  0.1553353463520739  0.1388738178314219
  0.5388024667874998  0.1600210741391233  0.3651944993274656
  0.5247697728157947  0.1583586288203210  0.5927220765177867
  0.5364356796868923  0.6553353463520740  0.1388738178314219
  0.5388024667874998  0.6600210741391229  0.3651944993274656
  0.5247697728157947  0.6583586288203209  0.5927220765177867
  0.5374281221718147  0.4067727114866707  0.2502147252726905
  0.5373312010523250  0.4118474455941287  0.4765854869464692
  0.5374281221718147  0.9067727114866708  0.2502147252726905
  0.5373312010523250  0.9118474455941289  0.4765854869464692
  0.4752301974073203  0.3613344913378526  0.1367877633686813
  0.4611975034356155  0.3596720460190500  0.3643153405590025
  0.4635642905362222  0.3643577738060994  0.5906360220550393
  0.4752301974073203  0.8613344913378524  0.1367877633686813
  0.4611975034356155  0.8596720460190505  0.3643153405590025
  0.4635642905362222  0.8643577738060993  0.5906360220550393
  0.4626687691707900  0.1078456745640445  0.2529243529399917
  0.4625718480512998  0.1129204086715098  0.4792951146137703
  0.4626687691707900  0.6078456745640445  0.2529243529399917
  0.4625718480512998  0.6129204086715097  0.4792951146137703
  0.4697931929352215  0.0078133900952896  0.1816017986304535
  0.4604772684276123  0.0121710095436051  0.4092005784265064
  0.4697931929352215  0.5078133900952896  0.1816017986304535
  0.4604772684276123  0.5121710095436049  0.4092005784265064
  0.4609074209234191  0.2591075525364128  0.2966999044582460
  0.4632110799904350  0.2630399208142559  0.5234060388041737
  0.4609074209234191  0.7591075525364127  0.2966999044582460
  0.4632110799904350  0.7630399208142559  0.5234060388041737
  0.5395227017955030  0.5075221105748704  0.3203092614608925
  0.5302067772878939  0.5118797300231858  0.5479080412569522
  0.5395227017955030  0.0075221105748703  0.3203092614608925
  0.5302067772878939  0.0118797300231858  0.5479080412569522
  0.5367888902326803  0.2566531993037008  0.2061038010639269
  0.5390925492996959  0.2605855675815439  0.4328099354098617
  0.5367888902326803  0.7566531993037008  0.2061038010639269
  0.5390925492996959  0.7605855675815439  0.4328099354098617
 
  0.00000000E+00  0.00000000E+00  0.00000000E+00
  0.00000000E+00  0.00000000E+00  0.00000000E+00
  0.00000000E+00  0.00000000E+00  0.00000000E+00
  0.00000000E+00  0.00000000E+00  0.00000000E+00
  0.00000000E+00  0.00000000E+00  0.00000000E+00
  0.00000000E+00  0.00000000E+00  0.00000000E+00
  0.00000000E+00  0.00000000E+00  0.00000000E+00
  0.00000000E+00  0.00000000E+00  0.00000000E+00
  0.00000000E+00  0.00000000E+00  0.00000000E+00
  0.00000000E+00  0.00000000E+00  0.00000000E+00
  0.00000000E+00  0.00000000E+00  0.00000000E+00
  0.00000000E+00  0.00000000E+00  0.00000000E+00
  0.00000000E+00  0.00000000E+00  0.00000000E+00
  0.00000000E+00  0.00000000E+00  0.00000000E+00
  0.00000000E+00  0.00000000E+00  0.00000000E+00
  0.00000000E+00  0.00000000E+00  0.00000000E+00
  0.00000000E+00  0.00000000E+00  0.00000000E+00
  0.00000000E+00  0.00000000E+00  0.00000000E+00
  0.00000000E+00  0.00000000E+00  0.00000000E+00
  0.00000000E+00  0.00000000E+00  0.00000000E+00
  0.00000000E+00  0.00000000E+00  0.00000000E+00
  0.00000000E+00  0.00000000E+00  0.00000000E+00
  0.00000000E+00  0.00000000E+00  0.00000000E+00
  0.00000000E+00  0.00000000E+00  0.00000000E+00
  0.00000000E+00  0.00000000E+00  0.00000000E+00
  0.00000000E+00  0.00000000E+00  0.00000000E+00
  0.00000000E+00  0.00000000E+00  0.00000000E+00
  0.00000000E+00  0.00000000E+00  0.00000000E+00
  0.00000000E+00  0.00000000E+00  0.00000000E+00
  0.00000000E+00  0.00000000E+00  0.00000000E+00
  0.00000000E+00  0.00000000E+00  0.00000000E+00
  0.00000000E+00  0.00000000E+00  0.00000000E+00
  0.00000000E+00  0.00000000E+00  0.00000000E+00
  0.00000000E+00  0.00000000E+00  0.00000000E+00
  0.00000000E+00  0.00000000E+00  0.00000000E+00
  0.00000000E+00  0.00000000E+00  0.00000000E+00
  0.00000000E+00  0.00000000E+00  0.00000000E+00
  0.00000000E+00  0.00000000E+00  0.00000000E+00
  0.00000000E+00  0.00000000E+00  0.00000000E+00
  0.00000000E+00  0.00000000E+00  0.00000000E+00
  0.00000000E+00  0.00000000E+00  0.00000000E+00
  0.00000000E+00  0.00000000E+00  0.00000000E+00
  0.00000000E+00  0.00000000E+00  0.00000000E+00
  0.00000000E+00  0.00000000E+00  0.00000000E+00
  0.00000000E+00  0.00000000E+00  0.00000000E+00
  0.00000000E+00  0.00000000E+00  0.00000000E+00
  0.00000000E+00  0.00000000E+00  0.00000000E+00
  0.00000000E+00  0.00000000E+00  0.00000000E+00
  0.00000000E+00  0.00000000E+00  0.00000000E+00
  0.00000000E+00  0.00000000E+00  0.00000000E+00
  0.00000000E+00  0.00000000E+00  0.00000000E+00
  0.00000000E+00  0.00000000E+00  0.00000000E+00
  0.00000000E+00  0.00000000E+00  0.00000000E+00
  0.00000000E+00  0.00000000E+00  0.00000000E+00
  0.00000000E+00  0.00000000E+00  0.00000000E+00
  0.00000000E+00  0.00000000E+00  0.00000000E+00
  0.00000000E+00  0.00000000E+00  0.00000000E+00
  0.00000000E+00  0.00000000E+00  0.00000000E+00
  0.00000000E+00  0.00000000E+00  0.00000000E+00
  0.00000000E+00  0.00000000E+00  0.00000000E+00
  0.00000000E+00  0.00000000E+00  0.00000000E+00
  0.00000000E+00  0.00000000E+00  0.00000000E+00
  0.00000000E+00  0.00000000E+00  0.00000000E+00
  0.00000000E+00  0.00000000E+00  0.00000000E+00
  0.00000000E+00  0.00000000E+00  0.00000000E+00
  0.00000000E+00  0.00000000E+00  0.00000000E+00
  0.00000000E+00  0.00000000E+00  0.00000000E+00
  0.00000000E+00  0.00000000E+00  0.00000000E+00
  0.00000000E+00  0.00000000E+00  0.00000000E+00
  0.00000000E+00  0.00000000E+00  0.00000000E+00
  0.00000000E+00  0.00000000E+00  0.00000000E+00
  0.00000000E+00  0.00000000E+00  0.00000000E+00
  0.00000000E+00  0.00000000E+00  0.00000000E+00
  0.00000000E+00  0.00000000E+00  0.00000000E+00
  0.00000000E+00  0.00000000E+00  0.00000000E+00
  0.00000000E+00  0.00000000E+00  0.00000000E+00
  0.00000000E+00  0.00000000E+00  0.00000000E+00
  0.00000000E+00  0.00000000E+00  0.00000000E+00
  0.00000000E+00  0.00000000E+00  0.00000000E+00
  0.00000000E+00  0.00000000E+00  0.00000000E+00
  0.00000000E+00  0.00000000E+00  0.00000000E+00
  0.00000000E+00  0.00000000E+00  0.00000000E+00
  0.00000000E+00  0.00000000E+00  0.00000000E+00
  0.00000000E+00  0.00000000E+00  0.00000000E+00
  0.00000000E+00  0.00000000E+00  0.00000000E+00
  0.00000000E+00  0.00000000E+00  0.00000000E+00
  0.00000000E+00  0.00000000E+00  0.00000000E+00
  0.00000000E+00  0.00000000E+00  0.00000000E+00
  0.00000000E+00  0.00000000E+00  0.00000000E+00
  0.00000000E+00  0.00000000E+00  0.00000000E+00
  0.00000000E+00  0.00000000E+00  0.00000000E+00
  0.00000000E+00  0.00000000E+00  0.00000000E+00
  0.00000000E+00  0.00000000E+00  0.00000000E+00
  0.00000000E+00  0.00000000E+00  0.00000000E+00
  0.00000000E+00  0.00000000E+00  0.00000000E+00
  0.00000000E+00  0.00000000E+00  0.00000000E+00
  0.00000000E+00  0.00000000E+00  0.00000000E+00
  0.00000000E+00  0.00000000E+00  0.00000000E+00
  0.00000000E+00  0.00000000E+00  0.00000000E+00
  0.00000000E+00  0.00000000E+00  0.00000000E+00
  0.00000000E+00  0.00000000E+00  0.00000000E+00
  0.00000000E+00  0.00000000E+00  0.00000000E+00
  0.00000000E+00  0.00000000E+00  0.00000000E+00
  0.00000000E+00  0.00000000E+00  0.00000000E+00
  0.00000000E+00  0.00000000E+00  0.00000000E+00
  0.00000000E+00  0.00000000E+00  0.00000000E+00
  0.00000000E+00  0.00000000E+00  0.00000000E+00
  0.00000000E+00  0.00000000E+00  0.00000000E+00
  0.00000000E+00  0.00000000E+00  0.00000000E+00
  0.00000000E+00  0.00000000E+00  0.00000000E+00
  0.00000000E+00  0.00000000E+00  0.00000000E+00
  0.00000000E+00  0.00000000E+00  0.00000000E+00
  0.00000000E+00  0.00000000E+00  0.00000000E+00
  0.00000000E+00  0.00000000E+00  0.00000000E+00
  0.00000000E+00  0.00000000E+00  0.00000000E+00
  0.00000000E+00  0.00000000E+00  0.00000000E+00
  0.00000000E+00  0.00000000E+00  0.00000000E+00
  0.00000000E+00  0.00000000E+00  0.00000000E+00
  0.00000000E+00  0.00000000E+00  0.00000000E+00
  0.00000000E+00  0.00000000E+00  0.00000000E+00
  0.00000000E+00  0.00000000E+00  0.00000000E+00
  0.00000000E+00  0.00000000E+00  0.00000000E+00
  0.00000000E+00  0.00000000E+00  0.00000000E+00
  0.00000000E+00  0.00000000E+00  0.00000000E+00
  0.00000000E+00  0.00000000E+00  0.00000000E+00
  0.00000000E+00  0.00000000E+00  0.00000000E+00
  0.00000000E+00  0.00000000E+00  0.00000000E+00
  0.00000000E+00  0.00000000E+00  0.00000000E+00
  0.00000000E+00  0.00000000E+00  0.00000000E+00
  0.00000000E+00  0.00000000E+00  0.00000000E+00
  0.00000000E+00  0.00000000E+00  0.00000000E+00
  0.00000000E+00  0.00000000E+00  0.00000000E+00
  0.00000000E+00  0.00000000E+00  0.00000000E+00
  0.00000000E+00  0.00000000E+00  0.00000000E+00
  0.00000000E+00  0.00000000E+00  0.00000000E+00
  0.00000000E+00  0.00000000E+00  0.00000000E+00
  0.00000000E+00  0.00000000E+00  0.00000000E+00
  0.00000000E+00  0.00000000E+00  0.00000000E+00
  0.00000000E+00  0.00000000E+00  0.00000000E+00
  0.00000000E+00  0.00000000E+00  0.00000000E+00
  0.00000000E+00  0.00000000E+00  0.00000000E+00
  0.00000000E+00  0.00000000E+00  0.00000000E+00
  0.00000000E+00  0.00000000E+00  0.00000000E+00
  0.00000000E+00  0.00000000E+00  0.00000000E+00
  0.00000000E+00  0.00000000E+00  0.00000000E+00
  0.00000000E+00  0.00000000E+00  0.00000000E+00
  0.00000000E+00  0.00000000E+00  0.00000000E+00
  0.00000000E+00  0.00000000E+00  0.00000000E+00
  0.00000000E+00  0.00000000E+00  0.00000000E+00
  0.00000000E+00  0.00000000E+00  0.00000000E+00
  0.00000000E+00  0.00000000E+00  0.00000000E+00
  0.00000000E+00  0.00000000E+00  0.00000000E+00
  0.00000000E+00  0.00000000E+00  0.00000000E+00
  0.00000000E+00  0.00000000E+00  0.00000000E+00
  0.00000000E+00  0.00000000E+00  0.00000000E+00
  0.00000000E+00  0.00000000E+00  0.00000000E+00
  0.00000000E+00  0.00000000E+00  0.00000000E+00
  0.00000000E+00  0.00000000E+00  0.00000000E+00
  0.00000000E+00  0.00000000E+00  0.00000000E+00
  0.00000000E+00  0.00000000E+00  0.00000000E+00
  0.00000000E+00  0.00000000E+00  0.00000000E+00
  0.00000000E+00  0.00000000E+00  0.00000000E+00
  0.00000000E+00  0.00000000E+00  0.00000000E+00
  0.00000000E+00  0.00000000E+00  0.00000000E+00
  0.00000000E+00  0.00000000E+00  0.00000000E+00
  0.00000000E+00  0.00000000E+00  0.00000000E+00
  0.00000000E+00  0.00000000E+00  0.00000000E+00
  0.00000000E+00  0.00000000E+00  0.00000000E+00
  0.00000000E+00  0.00000000E+00  0.00000000E+00
  0.00000000E+00  0.00000000E+00  0.00000000E+00
  0.00000000E+00  0.00000000E+00  0.00000000E+00
  0.00000000E+00  0.00000000E+00  0.00000000E+00
  0.00000000E+00  0.00000000E+00  0.00000000E+00
  0.00000000E+00  0.00000000E+00  0.00000000E+00
  0.00000000E+00  0.00000000E+00  0.00000000E+00
  0.00000000E+00  0.00000000E+00  0.00000000E+00
