This file is generated by VASPKIT code
   1.000
   12.6406764983999995    0.0000000000000000    0.0000000000000000
    0.0000000000000016   25.2016296386417515    0.0000000000000000
    0.0000000000000024    1.8348124745969625   51.7578901711374471
   Cs   Pb   I 
   40   32  104
Cartesian
    3.1601691250000021   13.0295224310587194   12.3207770976168476    Cs1
    3.1601691250000030   13.6411265892577056   24.9067404879959966    Cs2
    3.1601691250000030   25.6303372503795899   12.3207770976168476    Cs3
    3.1601691250000039   26.2419414085785796   24.9067404879959966    Cs4
    3.1601691249999999    6.4233129424864162    6.0277954021678646    Cs5
    3.1601691250000008    7.0349171006854032   18.6137587925470100    Cs6
    3.1601691250000012    7.6465212588843912   31.1997221829261626    Cs7
    3.1601691250000008   19.0241277618072928    6.0277954021678646    Cs8
    3.1601691250000017   19.6357319200062790   18.6137587925470100    Cs9
    3.1601691250000021   20.2473360782052687   31.1997221829261626   Cs10
    9.4805073739999983    0.7945008431286753   12.8511496358648944   Cs11
    9.4805073740000001    1.4061050013276633   25.4371130262440488   Cs12
    9.4805073739999983   13.3953156624495513   12.8511496358648944   Cs13
    9.4805073740000001   14.0069198206485392   25.4371130262440488   Cs14
    9.4805073739999983    6.7891060356084729    6.5581679876827526   Cs15
    9.4805073740000001    7.4007101938074600   19.1441313780618998   Cs16
    9.4805073740000001    8.0123143520064470   31.7300947684410453   Cs17
    9.4805073740000001   19.3899208549293434    6.5581679876827526   Cs18
    9.4805073740000019   20.0015250131283331   19.1441313780618998   Cs19
    9.4805073740000019   20.6131291713273193   31.7300947684410453   Cs20
    9.4805073739999983    0.5795528596162660    6.4627913646025625   Cs21
    9.4805073740000001    1.1911570178152535   19.0487547549817116   Cs22
    9.4805073740000001    1.8027611760142410   31.6347181453608570   Cs23
    9.4805073739999983   13.1803676789371433    6.4627913646025625   Cs24
    9.4805073740000001   13.7919718371361313   19.0487547549817116   Cs25
    9.4805073740000001   14.4035759953351192   31.6347181453608570   Cs26
    9.4805073739999983    7.1857625363698450   12.7557730592168319   Cs27
    9.4805073740000001    7.7973666945688329   25.3417364495959845   Cs28
    9.4805073740000001   19.7865773556907207   12.7557730592168319   Cs29
    9.4805073740000019   20.3981815138897069   25.3417364495959845   Cs30
    3.1601691250000017   12.6328659302633657    6.1231720253835942   Cs31
    3.1601691250000026   13.2444700884623519   18.7091354157627414   Cs32
    3.1601691250000030   13.8560742466613398   31.2950988061418869   Cs33
    3.1601691250000026   25.2336807495842415    6.1231720253835942   Cs34
    3.1601691250000035   25.8452849077832312   18.7091354157627414   Cs35
    3.1601691250000039   26.4568890659822173   31.2950988061418869   Cs36
    3.1601691250000017    6.6382605989252061   12.4161537210614661   Cs37
    3.1601691250000026    7.2498647571241932   25.0021171114406151   Cs38
    3.1601691250000026   19.2390754182460810   12.4161537210614661   Cs39
    3.1601691250000035   19.8506795764450708   25.0021171114406151   Cs40
    0.0000000000000016   10.2151163124161020   15.7324542374897884    Pb1
    0.0000000000000024   10.8267204706150881   28.3184176278689357    Pb2
    0.0000000000000024   22.8159311317369777   15.7324542374897884    Pb3
    0.0000000000000032   23.4275352899359675   28.3184176278689357    Pb4
    0.0000000000000008    3.6089068238777742    9.4394725427399777    Pb5
    0.0000000000000016    4.2205109820767621   22.0254359331191232    Pb6
    0.0000000000000016   16.2097216431986482    9.4394725427399777    Pb7
    0.0000000000000024   16.8213258013976343   22.0254359331191232    Pb8
    0.0000000000000012    3.9147089029602800   15.7324542375799634    Pb9
    0.0000000000000020    4.5263130611592679   28.3184176279591107   Pb10
    0.0000000000000020   16.5155237222811557   15.7324542375799634   Pb11
    0.0000000000000028   17.1271278804801454   28.3184176279591107   Pb12
    0.0000000000000012    9.9093142333335962    9.4394725426498010   Pb13
    0.0000000000000020   10.5209183915325823   22.0254359330289518   Pb14
    0.0000000000000020   22.5101290526544737    9.4394725426498010   Pb15
    0.0000000000000028   23.1217332108534599   22.0254359330289518   Pb16
    6.3203382490000006   10.2151163124161020   15.7324542374897884   Pb17
    6.3203382490000015   10.8267204706150881   28.3184176278689357   Pb18
    6.3203382490000015   22.8159311317369777   15.7324542374897884   Pb19
    6.3203382490000024   23.4275352899359675   28.3184176278689357   Pb20
    6.3203382489999997    3.6089068238777742    9.4394725427399777   Pb21
    6.3203382490000006    4.2205109820767621   22.0254359331191232   Pb22
    6.3203382490000006   16.2097216431986482    9.4394725427399777   Pb23
    6.3203382490000015   16.8213258013976343   22.0254359331191232   Pb24
    6.3203382489999997    3.9147089029602800   15.7324542375799634   Pb25
    6.3203382490000006    4.5263130611592679   28.3184176279591107   Pb26
    6.3203382490000006   16.5155237222811557   15.7324542375799634   Pb27
    6.3203382490000015   17.1271278804801454   28.3184176279591107   Pb28
    6.3203382490000024    9.9093142333335962    9.4394725426498010   Pb29
    6.3203382490000033   10.5209183915325823   22.0254359330289518   Pb30
    6.3203382490000033   22.5101290526544737    9.4394725426498010   Pb31
    6.3203382490000042   23.1217332108534599   22.0254359330289518   Pb32
    3.1601691250000012    3.6532874380802611   16.1013486743816507     I1
    3.1601691250000021    4.2648915962792486   28.6873120647607962     I2
    3.1601691250000021   16.2541022574011365   16.1013486743816507     I3
    3.1601691250000030   16.8657064156001226   28.6873120647607962     I4
    3.1601691249999999    9.6478929566688283    9.8083669793159487     I5
    3.1601691250000008   10.2594971148678162   22.3943303696950977     I6
    3.1601691250000008   22.2487077759897041    9.8083669793159487     I7
    3.1601691250000017   22.8603119341886902   22.3943303696950977     I8
    9.4805073739999983   10.1707355100468959    9.0705781069824738     I9
    9.4805073740000001   10.7823396682458839   21.6565414973616193    I10
    9.4805073740000001   22.7715503293677735    9.0705781069824738    I11
    9.4805073740000019   23.3831544875667596   21.6565414973616193    I12
    9.4805073740000001    4.1761301796735832   15.3635598019126363    I13
    9.4805073740000001    4.7877343378725712   27.9495231922917853    I14
    9.4805073740000019   16.7769449989944590   15.3635598019126363    I15
    9.4805073740000019   17.3885491571934487   27.9495231922917853    I16
    9.4805073739999983    3.2531357405605879    9.7184906890910199    I17
    9.4805073740000001    3.8647398987595754   22.3044540794701653    I18
    9.4805073740000001   15.8539505598814632    9.7184906890910199    I19
    9.4805073740000019   16.4655547180804511   22.3044540794701653    I20
    9.4805073740000001    9.8593452300977322   16.0114723837922917    I21
    9.4805073740000001   10.4709493882967202   28.5974357741714407    I22
    9.4805073740000019   22.4601600494186080   16.0114723837922917    I23
    9.4805073740000019   23.0717642076175942   28.5974357741714407    I24
    3.1601691250000004   10.5708873856580698   15.4534359044076783    I25
    3.1601691250000012   11.1824915438570578   28.0393992947868291    I26
    3.1601691250000012   23.1717022049789492   15.4534359044076783    I27
    3.1601691250000021   23.7833063631779353   28.0393992947868291    I28
    3.1601691249999999    3.9646779061961412    9.1604543964374674    I29
    3.1601691250000008    4.5762820643951283   21.7464177868166146    I30
    3.1601691250000004   16.5654927255170179    9.1604543964374674    I31
    3.1601691250000012   17.1770968837160041   21.7464177868166146    I32
    0.3277095290000014    9.1725329791457852    6.2964302816847022    I33
    0.3277095290000022    9.7841371373447732   18.8823936720638486    I34
    0.3277095290000030   10.3957412955437594   31.4683570624429976    I35
    0.3277095290000022   21.7733477984666592    6.2964302816847022    I36
    0.3277095290000031   22.3849519566656454   18.8823936720638486    I37
    0.3277095290000038   22.9965561148646351   31.4683570624429976    I38
    0.3277095290000014    3.1779276487724690   12.5894119766148673    I39
    0.3277095290000022    3.7895318069714561   25.1753753669940110    I40
    0.3277095290000022   15.7787424680933448   12.5894119766148673    I41
    0.3277095290000030   16.3903466262923310   25.1753753669940110    I42
   12.3129672049999996    4.0398859989976410    6.2895331091647346    I43
   12.3129672050000014    4.6514901571966289   18.8754964995438854    I44
   12.3129672050000014    5.2630943153956160   31.4614598899230309    I45
   12.3129672050000014   16.6407008183185177    6.2895331091647346    I46
   12.3129672050000032   17.2523049765175038   18.8754964995438854    I47
   12.3129672050000032   17.8639091347164936   31.4614598899230309    I48
   12.3129672049999979   10.6460954875699425   12.5825148046137230    I49
   12.3129672049999996   11.2576996457689305   25.1684781949928720    I50
   12.3129672049999996   23.2469103068908147   12.5825148046137230    I51
   12.3129672050000014   23.8585144650898044   25.1684781949928720    I52
   12.3129672049999996   13.3902152154903842   16.3158136702993239    I53
   12.3129672049999996   14.0018193736893721   28.9017770606784730    I54
   12.3129672050000014   25.9910300348112635   16.3158136702993239    I55
   12.3129672050000014   26.6026341930102497   28.9017770606784730    I56
   12.3129672049999996    6.7840057269035183   10.0228319745506891    I57
   12.3129672050000014    7.3956098851025063   22.6087953649298434    I58
   12.3129672050000014   19.3848205462243968   10.0228319745506891    I59
   12.3129672050000032   19.9964247044233829   22.6087953649298434    I60
    0.3277095290000010    0.4338079198532088    8.8561131109777946    I61
    0.3277095290000018    1.0454120780521963   21.4420765013569437    I62
    0.3277095290000018   13.0346227391740825    8.8561131109777946    I63
    0.3277095290000026   13.6462268973730705   21.4420765013569437    I64
    0.3277095290000018    7.0400174083915363   15.1490948057276125    I65
    0.3277095290000026    7.6516215665905234   27.7350581961067526    I66
    0.3277095290000026   19.6408322277124157   15.1490948057276125    I67
    0.3277095290000034   20.2524363859114018   27.7350581961067526    I68
    6.6480475429999988    4.0398859989976410    6.2895331091647346    I69
    6.6480475429999997    4.6514901571966289   18.8754964995438854    I70
    6.6480475430000006    5.2630943153956160   31.4614598899230309    I71
    6.6480475429999997   16.6407008183185177    6.2895331091647346    I72
    6.6480475430000006   17.2523049765175038   18.8754964995438854    I73
    6.6480475430000014   17.8639091347164936   31.4614598899230309    I74
    6.6480475430000006   10.6460954875699425   12.5825148046137230    I75
    6.6480475430000014   11.2576996457689305   25.1684781949928720    I76
    6.6480475430000014   23.2469103068908147   12.5825148046137230    I77
    6.6480475430000023   23.8585144650898044   25.1684781949928720    I78
    5.9926285790000007    9.1725329791457852    6.2964302816847022    I79
    5.9926285790000016    9.7841371373447732   18.8823936720638486    I80
    5.9926285790000025   10.3957412955437594   31.4683570624429976    I81
    5.9926285790000016   21.7733477984666592    6.2964302816847022    I82
    5.9926285790000025   22.3849519566656454   18.8823936720638486    I83
    5.9926285790000033   22.9965561148646351   31.4683570624429976    I84
    5.9926285790000007    3.1779276487724690   12.5894119766148673    I85
    5.9926285790000016    3.7895318069714561   25.1753753669940110    I86
    5.9926285790000016   15.7787424680933448   12.5894119766148673    I87
    5.9926285790000025   16.3903466262923310   25.1753753669940110    I88
    5.9926285790000007    0.4338079198532088    8.8561131109777946    I89
    5.9926285790000016    1.0454120780521963   21.4420765013569437    I90
    5.9926285790000016   13.0346227391740825    8.8561131109777946    I91
    5.9926285790000025   13.6462268973730705   21.4420765013569437    I92
    5.9926285790000007    7.0400174083915363   15.1490948057276125    I93
    5.9926285790000016    7.6516215665905234   27.7350581961067526    I94
    5.9926285790000016   19.6408322277124157   15.1490948057276125    I95
    5.9926285790000025   20.2524363859114018   27.7350581961067526    I96
    6.6480475429999988   13.3902152154903842   16.3158136702993239    I97
    6.6480475429999997   14.0018193736893721   28.9017770606784730    I98
    6.6480475429999997   25.9910300348112635   16.3158136702993239    I99
    6.6480475430000006   26.6026341930102497   28.9017770606784730   I100
    6.6480475429999997    6.7840057269035183   10.0228319745506891   I101
    6.6480475430000006    7.3956098851025063   22.6087953649298434   I102
    6.6480475430000006   19.3848205462243968   10.0228319745506891   I103
    6.6480475430000014   19.9964247044233829   22.6087953649298434   I104
