This file is generated by VASPKIT code  
   1.00000000000000     
    17.3823947905999994    0.0000000000000000    0.0000000000000000
     0.0000000000000000   18.2475891113000017    0.0000000000000000
     0.0000000000000000    0.0000000000000000   40.0000000000000000
   Cs   Pb   I 
    32    32    96
Direct
  0.5004864902092171  0.4648678507157573  0.3976909867191560
  0.4506335162912362  0.4744426799879081  0.7180860326290991
  0.5004864902092171  0.9648678209227853  0.3976909867191560
  0.4506335162912362  0.9744426501949364  0.7180860326290991
  0.9789872965849098  0.4650225701752672  0.3947476909040484
  0.0008883284544707  0.4629514311009543  0.7060816656423754
  0.9789872965849098  0.9650225403822957  0.3947476909040484
  0.0008883284544707  0.9629514013079826  0.7060816656423754
 -0.0008883363705279  0.0370485446958497  0.2419689972326294
  0.0210126954990329  0.0349774056215367  0.5533030464709503
 -0.0008883363705279  0.5370485390704475  0.2419689972326294
  0.0210126954990329  0.5349773999961344  0.5533030464709503
  0.5493664538739838  0.0255572958088960  0.2299646302459056
  0.4995134799560101  0.0351321250810469  0.5503597506558424
  0.5493664538739838  0.5255572901834937  0.2299646302459056
  0.4995134799560101  0.5351321194556448  0.5503597506558424
  0.1996055173623542  0.2749992987316851  0.2281903387427905
  0.2279183170923842  0.2844821539207185  0.5532786408787110
  0.1996055173623542  0.7749992987508627  0.2281903387427905
  0.2279183170923842  0.7844821539398963  0.5532786408787110
  0.7507573223585979  0.2866957642788556  0.2425093020134123
  0.7514227798661492  0.2849407529158079  0.5510887298999838
  0.7507573223585979  0.7866957642980332  0.2425093020134123
  0.7514227798661492  0.7849407529349853  0.5510887298999838
  0.2485772201568585  0.2150592470485725  0.3969620074750145
  0.2492426776644093  0.2133042356855250  0.7055413608615928
  0.2485772201568585  0.7150592470677503  0.3969620074750145
  0.2492426776644093  0.7133042357047024  0.7055413608615928
  0.7720816829306231  0.2155178460436621  0.3947720964962875
  0.8003944826606532  0.2250007012326954  0.7198603241322142
  0.7720816829306231  0.7155178460628393  0.3947720964962875
  0.8003944826606532  0.7250007012518730  0.7198603241322142
  0.2562975637847359 -0.0002133824661470  0.3182004024725539
  0.2508444859064324  0.9972646892456962  0.6363072455210214
  0.2562975637847359  0.4997866175530310  0.3182004024725539
  0.2508444859064324  0.4972646892648739  0.6363072455210214
  0.7491555141165818  0.0027353107543038  0.3117434918539848
  0.7437024362382788  0.0002133824661466  0.6298503349024517
  0.7491555141165818  0.5027353107734742  0.3117434918539848
  0.7437024362382788  0.5002133824853245  0.6298503349024517
  0.0015895149332247  0.2526185491881566  0.3113485808930548
 -0.0015895149332251  0.2473814508310284  0.6367021564819513
  0.0015895149332247  0.7526185491525293  0.3113485808930548
 -0.0015895149332251  0.7473814507954021  0.6367021564819513
  0.4930947590097592  0.2496313471663000  0.3189852236146356
  0.5069052409557231  0.2503686528528847  0.6290655137603700
  0.4930947590097592  0.7496313471306734  0.3189852236146356
  0.5069052409557231  0.7503686528172581  0.6290655137603700
  0.3087189323996929  0.0126441556805518  0.1686922690494154
  0.2507514908666021  0.9985773540379472  0.4736462559333242
  0.3087189323996929  0.5126441556997293  0.1686922690494154
  0.2507514908666021  0.4985773540571249  0.4736462559333242
  0.7492485091564121  0.0014226459620526  0.4744044218666736
  0.6912810676233215  0.9873558443194482  0.7793584683255832
  0.7492485091564121  0.5014226459812303  0.4744044218666736
  0.6912810676233215  0.4873558443386259  0.7793584683255832
  0.0000000000000000  0.2500000000095923  0.4740253388999989
  0.0000000000000000  0.7499999999739657  0.4740253388999989
  0.4422659877490884  0.2643307951470683  0.1703393424610854
  0.4999999999827409  0.2500000000095923  0.4740253388999989
  0.5577340122163935  0.2356692048721163  0.7777113949139137
  0.4422659877490884  0.7643307951114414  0.1703393424610854
  0.4999999999827409  0.7499999999739657  0.4740253388999989
  0.5577340122163935  0.7356692048364900  0.7777113949139137
  0.0269228933722679  0.2548685667066583  0.3942851649368633
  0.0280373105360830  0.2502077226330515  0.7139685975910696
  0.0269228933722679  0.7548685666710391  0.3942851649368633
  0.0280373105360830  0.7502077225974320  0.7139685975910696
  0.5486442353930908  0.2542546552396576  0.3950723275345079
  0.5817285857567022  0.2880189070742793  0.7054338314565620
  0.5486442353930908  0.7542546552040380  0.3950723275345079
  0.5817285857567022  0.7880189070386601  0.7054338314565620
  0.4182714142087802  0.2119810929448981  0.2426168314184429
  0.4513557645723907  0.2457453447795198  0.5529784098404910
  0.4182714142087802  0.7119810929640826  0.2426168314184429
  0.4513557645723907  0.7457453447987047  0.5529784098404910
  0.9719626988067017  0.2497922773861259  0.2340820652839356
  0.9730771159705163  0.2451314333125194  0.5537655724381350
  0.9719626988067017  0.7497922774053107  0.2340820652839356
  0.9730771159705163  0.7451314333317036  0.5537655724381350
  0.3326704998900933  0.4606067384754179  0.2407305935530410
  0.2779921277257798  0.4941271519944318  0.5520122225545497
  0.3326704998900933  0.9606067980641111  0.2407305935530410
  0.2779921277257798  0.9941272115831248  0.5520122225545497
  0.7770265316363332  0.5001113308049090  0.2349092578065168
  0.7986478323908540  0.4958207539627533  0.5549625697746223
  0.7770265316363332  0.0001113903936019  0.2349092578065168
  0.7986478323908540  0.9958208135514466  0.5549625697746223
  0.2013521527320225  0.0041792492897276  0.3930881676003763
  0.2229734534865430  0.9998886724475720  0.7131414050684879
  0.2013521527320225  0.5041792460208046  0.3930881676003763
  0.2229734534865430  0.4998886691786494  0.7131414050684879
  0.7220078722972276  0.0058728512580492  0.3960385148204492
  0.6673295001329146  0.0393932647770632  0.7073200693219638
  0.7220078722972276  0.5058728479891264  0.3960385148204492
  0.6673295001329146  0.5393932615081400  0.7073200693219638
  0.3980814634201746  0.1039519593781294  0.3386030993015644
  0.4014307937705656  0.1050827000618565  0.6448487827675997
  0.3980814634201746  0.6039519892094632  0.3386030993015644
  0.4014307937705656  0.6050827298931903  0.6448487827675997
  0.8994744147634129  0.1036528529449094  0.3256616868569653
  0.8944141485081455  0.1014990930042458  0.6485173201912054
  0.8994744147634129  0.6036528827762435  0.3256616868569653
  0.8944141485081455  0.6014991228355797  0.6485173201912054
  0.1055858216570674  0.3985009069601347  0.2995333873838016
  0.1005255554017997  0.3963471470194712  0.6223889909180348
  0.1055858216570674  0.8985008771671559  0.2995333873838016
  0.1005255554017997  0.8963471172264921  0.6223889909180348
  0.5985692360527108  0.3949172999025238  0.3032019248074073
  0.6019185664031019  0.3960480405862510  0.6094475784734366
  0.5985692360527108  0.8949172701095452  0.3032019248074073
  0.6019185664031019  0.8960480107932723  0.6094475784734366
  0.1520138224316570  0.1450466038067539  0.3017424240537280
  0.1487809296673264  0.1459625352832117  0.6224153959506189
  0.1520138224316570  0.6450465740137821  0.3017424240537280
  0.1487809296673264  0.6459625054902398  0.6224153959506189
  0.6455122612097159  0.1492156084380947  0.3010461992802573
  0.6476184479601458  0.1457687781285780  0.6096577899975120
  0.6455122612097159  0.6492155786451229  0.3010461992802573
  0.6476184479601458  0.6457687483356062  0.6096577899975120
  0.3523815520628690  0.3542312218357953  0.3383928877774893
  0.3544877388132985  0.3507843915262787  0.6470045082947499
  0.3523815520628690  0.8542312516671365  0.3383928877774893
  0.3544877388132985  0.8507844213576198  0.6470045082947499
  0.8512191000984243  0.3540374646811619  0.3256352818243821
  0.8479862073340938  0.3549533961576197  0.6463082835212788
  0.8512191000984243  0.8540374945125029  0.3256352818243821
  0.8479862073340938  0.8549534259889606  0.6463082835212788
  0.0973411018582790  0.4006722152407250  0.4843622618163441
  0.0973411018582790  0.9006721854477465  0.4843622618163441
  0.5944006740809717  0.3425382200076888  0.1763186267503440
  0.5981203223065703  0.3992113937982488  0.4871705937250989
  0.5300806030803717  0.3940844873679293  0.8031989126577268
  0.5944006740809717  0.8425381902147098  0.1763186267503440
  0.5981203223065703  0.8992113640052699  0.4871705937250989
  0.5300806030803717  0.8940844575749508  0.8031989126577268
  0.4699194267429045  0.1059155125964512  0.1448517949172728
  0.4018797075167062  0.1007886061661316  0.4608801138499009
  0.4055993557423045  0.1574617799566917  0.7717320659246600
  0.4699194267429045  0.6059155424277848  0.1448517949172728
  0.4018797075167062  0.6007886359974657  0.4608801138499009
  0.4055993557423045  0.6574618097880258  0.7717320659246600
  0.9026588683069339  0.0993277847236556  0.4636884457586557
  0.9026588683069339  0.5993278145549891  0.4636884457586556
  0.2817521798642051  0.3536570130887604  0.1432695816788114
  0.3488619951578091  0.3500371471331911  0.4605522348798212
  0.2817521798642051  0.8536570429201014  0.1432695816788114
  0.3488619951578091  0.8500371769645317  0.4605522348798212
  0.8471808311227831  0.3503808527168268  0.4633393142777194
  0.8435843647225928  0.4097301979262888  0.7724260595646645
  0.8471808311227831  0.8503808825481678  0.4633393142777194
  0.8435843647225928  0.9097302277576297  0.7724260595646645
  0.1564156650431578  0.0902698020380847  0.1756246331103324
  0.1528191986429678  0.1496191472475465  0.4847113932972804
  0.1564156650431578  0.5902697722451130  0.1756246331103324
  0.1528191986429678  0.6496191174545749  0.4847113932972804
  0.6511380048652057  0.1499628528311822  0.4874984726951785
  0.7182478201588094  0.1463429868756128  0.8047811258961883
  0.6511380048652057  0.6499628230382110  0.4874984726951785
  0.7182478201588094  0.6463429570826413  0.8047811258961883
 
  0.00000000E+00  0.00000000E+00  0.00000000E+00
  0.00000000E+00  0.00000000E+00  0.00000000E+00
  0.00000000E+00  0.00000000E+00  0.00000000E+00
  0.00000000E+00  0.00000000E+00  0.00000000E+00
  0.00000000E+00  0.00000000E+00  0.00000000E+00
  0.00000000E+00  0.00000000E+00  0.00000000E+00
  0.00000000E+00  0.00000000E+00  0.00000000E+00
  0.00000000E+00  0.00000000E+00  0.00000000E+00
  0.00000000E+00  0.00000000E+00  0.00000000E+00
  0.00000000E+00  0.00000000E+00  0.00000000E+00
  0.00000000E+00  0.00000000E+00  0.00000000E+00
  0.00000000E+00  0.00000000E+00  0.00000000E+00
  0.00000000E+00  0.00000000E+00  0.00000000E+00
  0.00000000E+00  0.00000000E+00  0.00000000E+00
  0.00000000E+00  0.00000000E+00  0.00000000E+00
  0.00000000E+00  0.00000000E+00  0.00000000E+00
  0.00000000E+00  0.00000000E+00  0.00000000E+00
  0.00000000E+00  0.00000000E+00  0.00000000E+00
  0.00000000E+00  0.00000000E+00  0.00000000E+00
  0.00000000E+00  0.00000000E+00  0.00000000E+00
  0.00000000E+00  0.00000000E+00  0.00000000E+00
  0.00000000E+00  0.00000000E+00  0.00000000E+00
  0.00000000E+00  0.00000000E+00  0.00000000E+00
  0.00000000E+00  0.00000000E+00  0.00000000E+00
  0.00000000E+00  0.00000000E+00  0.00000000E+00
  0.00000000E+00  0.00000000E+00  0.00000000E+00
  0.00000000E+00  0.00000000E+00  0.00000000E+00
  0.00000000E+00  0.00000000E+00  0.00000000E+00
  0.00000000E+00  0.00000000E+00  0.00000000E+00
  0.00000000E+00  0.00000000E+00  0.00000000E+00
  0.00000000E+00  0.00000000E+00  0.00000000E+00
  0.00000000E+00  0.00000000E+00  0.00000000E+00
  0.00000000E+00  0.00000000E+00  0.00000000E+00
  0.00000000E+00  0.00000000E+00  0.00000000E+00
  0.00000000E+00  0.00000000E+00  0.00000000E+00
  0.00000000E+00  0.00000000E+00  0.00000000E+00
  0.00000000E+00  0.00000000E+00  0.00000000E+00
  0.00000000E+00  0.00000000E+00  0.00000000E+00
  0.00000000E+00  0.00000000E+00  0.00000000E+00
  0.00000000E+00  0.00000000E+00  0.00000000E+00
  0.00000000E+00  0.00000000E+00  0.00000000E+00
  0.00000000E+00  0.00000000E+00  0.00000000E+00
  0.00000000E+00  0.00000000E+00  0.00000000E+00
  0.00000000E+00  0.00000000E+00  0.00000000E+00
  0.00000000E+00  0.00000000E+00  0.00000000E+00
  0.00000000E+00  0.00000000E+00  0.00000000E+00
  0.00000000E+00  0.00000000E+00  0.00000000E+00
  0.00000000E+00  0.00000000E+00  0.00000000E+00
  0.00000000E+00  0.00000000E+00  0.00000000E+00
  0.00000000E+00  0.00000000E+00  0.00000000E+00
  0.00000000E+00  0.00000000E+00  0.00000000E+00
  0.00000000E+00  0.00000000E+00  0.00000000E+00
  0.00000000E+00  0.00000000E+00  0.00000000E+00
  0.00000000E+00  0.00000000E+00  0.00000000E+00
  0.00000000E+00  0.00000000E+00  0.00000000E+00
  0.00000000E+00  0.00000000E+00  0.00000000E+00
  0.00000000E+00  0.00000000E+00  0.00000000E+00
  0.00000000E+00  0.00000000E+00  0.00000000E+00
  0.00000000E+00  0.00000000E+00  0.00000000E+00
  0.00000000E+00  0.00000000E+00  0.00000000E+00
  0.00000000E+00  0.00000000E+00  0.00000000E+00
  0.00000000E+00  0.00000000E+00  0.00000000E+00
  0.00000000E+00  0.00000000E+00  0.00000000E+00
  0.00000000E+00  0.00000000E+00  0.00000000E+00
  0.00000000E+00  0.00000000E+00  0.00000000E+00
  0.00000000E+00  0.00000000E+00  0.00000000E+00
  0.00000000E+00  0.00000000E+00  0.00000000E+00
  0.00000000E+00  0.00000000E+00  0.00000000E+00
  0.00000000E+00  0.00000000E+00  0.00000000E+00
  0.00000000E+00  0.00000000E+00  0.00000000E+00
  0.00000000E+00  0.00000000E+00  0.00000000E+00
  0.00000000E+00  0.00000000E+00  0.00000000E+00
  0.00000000E+00  0.00000000E+00  0.00000000E+00
  0.00000000E+00  0.00000000E+00  0.00000000E+00
  0.00000000E+00  0.00000000E+00  0.00000000E+00
  0.00000000E+00  0.00000000E+00  0.00000000E+00
  0.00000000E+00  0.00000000E+00  0.00000000E+00
  0.00000000E+00  0.00000000E+00  0.00000000E+00
  0.00000000E+00  0.00000000E+00  0.00000000E+00
  0.00000000E+00  0.00000000E+00  0.00000000E+00
  0.00000000E+00  0.00000000E+00  0.00000000E+00
  0.00000000E+00  0.00000000E+00  0.00000000E+00
  0.00000000E+00  0.00000000E+00  0.00000000E+00
  0.00000000E+00  0.00000000E+00  0.00000000E+00
  0.00000000E+00  0.00000000E+00  0.00000000E+00
  0.00000000E+00  0.00000000E+00  0.00000000E+00
  0.00000000E+00  0.00000000E+00  0.00000000E+00
  0.00000000E+00  0.00000000E+00  0.00000000E+00
  0.00000000E+00  0.00000000E+00  0.00000000E+00
  0.00000000E+00  0.00000000E+00  0.00000000E+00
  0.00000000E+00  0.00000000E+00  0.00000000E+00
  0.00000000E+00  0.00000000E+00  0.00000000E+00
  0.00000000E+00  0.00000000E+00  0.00000000E+00
  0.00000000E+00  0.00000000E+00  0.00000000E+00
  0.00000000E+00  0.00000000E+00  0.00000000E+00
  0.00000000E+00  0.00000000E+00  0.00000000E+00
  0.00000000E+00  0.00000000E+00  0.00000000E+00
  0.00000000E+00  0.00000000E+00  0.00000000E+00
  0.00000000E+00  0.00000000E+00  0.00000000E+00
  0.00000000E+00  0.00000000E+00  0.00000000E+00
  0.00000000E+00  0.00000000E+00  0.00000000E+00
  0.00000000E+00  0.00000000E+00  0.00000000E+00
  0.00000000E+00  0.00000000E+00  0.00000000E+00
  0.00000000E+00  0.00000000E+00  0.00000000E+00
  0.00000000E+00  0.00000000E+00  0.00000000E+00
  0.00000000E+00  0.00000000E+00  0.00000000E+00
  0.00000000E+00  0.00000000E+00  0.00000000E+00
  0.00000000E+00  0.00000000E+00  0.00000000E+00
  0.00000000E+00  0.00000000E+00  0.00000000E+00
  0.00000000E+00  0.00000000E+00  0.00000000E+00
  0.00000000E+00  0.00000000E+00  0.00000000E+00
  0.00000000E+00  0.00000000E+00  0.00000000E+00
  0.00000000E+00  0.00000000E+00  0.00000000E+00
  0.00000000E+00  0.00000000E+00  0.00000000E+00
  0.00000000E+00  0.00000000E+00  0.00000000E+00
  0.00000000E+00  0.00000000E+00  0.00000000E+00
  0.00000000E+00  0.00000000E+00  0.00000000E+00
  0.00000000E+00  0.00000000E+00  0.00000000E+00
  0.00000000E+00  0.00000000E+00  0.00000000E+00
  0.00000000E+00  0.00000000E+00  0.00000000E+00
  0.00000000E+00  0.00000000E+00  0.00000000E+00
  0.00000000E+00  0.00000000E+00  0.00000000E+00
  0.00000000E+00  0.00000000E+00  0.00000000E+00
  0.00000000E+00  0.00000000E+00  0.00000000E+00
  0.00000000E+00  0.00000000E+00  0.00000000E+00
  0.00000000E+00  0.00000000E+00  0.00000000E+00
  0.00000000E+00  0.00000000E+00  0.00000000E+00
  0.00000000E+00  0.00000000E+00  0.00000000E+00
  0.00000000E+00  0.00000000E+00  0.00000000E+00
  0.00000000E+00  0.00000000E+00  0.00000000E+00
  0.00000000E+00  0.00000000E+00  0.00000000E+00
  0.00000000E+00  0.00000000E+00  0.00000000E+00
  0.00000000E+00  0.00000000E+00  0.00000000E+00
  0.00000000E+00  0.00000000E+00  0.00000000E+00
  0.00000000E+00  0.00000000E+00  0.00000000E+00
  0.00000000E+00  0.00000000E+00  0.00000000E+00
  0.00000000E+00  0.00000000E+00  0.00000000E+00
  0.00000000E+00  0.00000000E+00  0.00000000E+00
  0.00000000E+00  0.00000000E+00  0.00000000E+00
  0.00000000E+00  0.00000000E+00  0.00000000E+00
  0.00000000E+00  0.00000000E+00  0.00000000E+00
  0.00000000E+00  0.00000000E+00  0.00000000E+00
  0.00000000E+00  0.00000000E+00  0.00000000E+00
  0.00000000E+00  0.00000000E+00  0.00000000E+00
  0.00000000E+00  0.00000000E+00  0.00000000E+00
  0.00000000E+00  0.00000000E+00  0.00000000E+00
  0.00000000E+00  0.00000000E+00  0.00000000E+00
  0.00000000E+00  0.00000000E+00  0.00000000E+00
  0.00000000E+00  0.00000000E+00  0.00000000E+00
  0.00000000E+00  0.00000000E+00  0.00000000E+00
  0.00000000E+00  0.00000000E+00  0.00000000E+00
  0.00000000E+00  0.00000000E+00  0.00000000E+00
  0.00000000E+00  0.00000000E+00  0.00000000E+00
  0.00000000E+00  0.00000000E+00  0.00000000E+00
  0.00000000E+00  0.00000000E+00  0.00000000E+00
  0.00000000E+00  0.00000000E+00  0.00000000E+00
  0.00000000E+00  0.00000000E+00  0.00000000E+00
  0.00000000E+00  0.00000000E+00  0.00000000E+00
  0.00000000E+00  0.00000000E+00  0.00000000E+00
  0.00000000E+00  0.00000000E+00  0.00000000E+00
