This file is generated by VASPKIT code
1.0
       17.3823947906         0.0000000000         0.0000000000
        0.0000000000        18.2475891113         0.0000000000
        0.0000000000         0.0000000000        40.0000000000
   Cs   Pb    I
   32   32   96
Cartesian
     8.625334850         8.808457500        15.800845623
     8.625334850         8.808457500        28.441519737
     8.625334850        17.932251512        15.800845623
     8.625334850        17.932251512        28.441519737
    17.316532764         8.808457500        15.800845623
    17.316532764         8.808457500        28.441519737
    17.316532764        17.932251512        15.800845623
    17.316532764        17.932251512        28.441519737
     0.065861889         0.315336614         9.480506778
     0.065861889         0.315336614        22.121183872
     0.065861889         9.439131067         9.480506778
     0.065861889         9.439131067        22.121183872
     8.757059422         0.315336614         9.480506778
     8.757059422         0.315336614        22.121183872
     8.757059422         9.439131067         9.480506778
     8.757059422         9.439131067        22.121183872
     4.279736671         4.877233789         9.480506778
     4.279736671         4.877233789        22.121183872
     4.279736671        14.001028345         9.480506778
     4.279736671        14.001028345        22.121183872
    12.970934066         4.877233789         9.480506778
    12.970934066         4.877233789        22.121183872
    12.970934066        14.001028345         9.480506778
    12.970934066        14.001028345        22.121183872
     4.411460725         4.246560766        15.800845623
     4.411460725         4.246560766        28.441519737
     4.411460725        13.370355322        15.800845623
     4.411460725        13.370355322        28.441519737
    13.102658120         4.246560766        15.800845623
    13.102658120         4.246560766        28.441519737
    13.102658120        13.370355322        15.800845623
    13.102658120        13.370355322        28.441519737
     4.345598698         0.000000000        12.640676498
     4.345598698         0.000000000        25.281352997
     4.345598698         9.123794556        12.640676498
     4.345598698         9.123794556        25.281352997
    13.036796093         0.000000000        12.640676498
    13.036796093         0.000000000        25.281352997
    13.036796093         9.123794556        12.640676498
    13.036796093         9.123794556        25.281352997
     0.000000000         4.561897278        12.640676498
     0.000000000         4.561897278        25.281352997
     0.000000000        13.685691833        12.640676498
     0.000000000        13.685691833        25.281352997
     8.691197395         4.561897278        12.640676498
     8.691197395         4.561897278        25.281352997
     8.691197395        13.685691833        12.640676498
     8.691197395        13.685691833        25.281352997
     4.345598698         0.000000000         6.320338249
     4.345598698         0.000000000        18.961013556
     4.345598698         9.123794556         6.320338249
     4.345598698         9.123794556        18.961013556
    13.036796093         0.000000000        18.961013556
    13.036796093         0.000000000        31.601691246
    13.036796093         9.123794556        18.961013556
    13.036796093         9.123794556        31.601691246
     0.000000000         4.561897278        18.961013556
     0.000000000        13.685691833        18.961013556
     8.691197395         4.561897278         6.320338249
     8.691197395         4.561897278        18.961013556
     8.691197395         4.561897278        31.601691246
     8.691197395        13.685691833         6.320338249
     8.691197395        13.685691833        18.961013556
     8.691197395        13.685691833        31.601691246
     0.447414156         4.627050241        15.800845623
     0.447414156         4.627050241        28.441519737
     0.447414156        13.750844796        15.800845623
     0.447414156        13.750844796        28.441519737
     9.138611389         4.627050241        15.800845623
     9.138611389         4.627050241        28.441519737
     9.138611389        13.750844796        15.800845623
     9.138611389        13.750844796        28.441519737
     8.243783401         4.496744315         9.480506778
     8.243783401         4.496744315        22.121183872
     8.243783401        13.620538871         9.480506778
     8.243783401        13.620538871        22.121183872
    16.934980797         4.496744315         9.480506778
    16.934980797         4.496744315        22.121183872
    16.934980797        13.620538871         9.480506778
    16.934980797        13.620538871        22.121183872
     4.793012692         9.058641593         9.480506778
     4.793012692         9.058641593        22.121183872
     4.793012692        18.182437236         9.480506778
     4.793012692        18.182437236        22.121183872
    13.484210087         9.058641593         9.480506778
    13.484210087         9.058641593        22.121183872
    13.484210087        18.182437236         9.480506778
    13.484210087        18.182437236        22.121183872
     3.898184445         0.065153022        15.800845623
     3.898184445         0.065153022        28.441519737
     3.898184445         9.188947518        15.800845623
     3.898184445         9.188947518        28.441519737
    12.589382099         0.065153022        15.800845623
    12.589382099         0.065153022        28.441519737
    12.589382099         9.188947518        15.800845623
    12.589382099         9.188947518        28.441519737
     6.923616476         1.860560683        12.968385220
     6.923616476         1.860560683        25.609061718
     6.923616476        10.984355783        12.968385220
     6.923616476        10.984355783        25.609061718
    15.614813353         1.860560683        12.968385220
    15.614813353         1.860560683        25.609061718
    15.614813353        10.984355783        12.968385220
    15.614813353        10.984355783        25.609061718
     1.767580919         7.263233872        12.312966585
     1.767580919         7.263233872        24.953641891
     1.767580919        16.387027884        12.312966585
     1.767580919        16.387027884        24.953641891
    10.458778833         7.263233872        12.312966585
    10.458778833         7.263233872        24.953641891
    10.458778833        16.387027884        12.312966585
    10.458778833        16.387027884        24.953641891
     2.578017778         2.701336594        12.312966585
     2.578017778         2.701336594        24.953641891
     2.578017778        11.825130606        12.312966585
     2.578017778        11.825130606        24.953641891
    11.269214656         2.701336594        12.312966585
    11.269214656         2.701336594        24.953641891
    11.269214656        11.825130606        12.312966585
    11.269214656        11.825130606        24.953641891
     6.113180135         6.422457961        12.968385220
     6.113180135         6.422457961        25.609061718
     6.113180135        15.546253061        12.968385220
     6.113180135        15.546253061        25.609061718
    14.804377530         6.422457961        12.968385220
    14.804377530         6.422457961        25.609061718
    14.804377530        15.546253061        12.968385220
    14.804377530        15.546253061        25.609061718
     1.767580919         7.263233872        19.288723469
     1.767580919        16.387027884        19.288723469
    10.458778833         7.263233872         6.648047566
    10.458778833         7.263233872        19.288723469
    10.458778833         7.263233872        31.929399967
    10.458778833        16.387027884         6.648047566
    10.458778833        16.387027884        19.288723469
    10.458778833        16.387027884        31.929399967
     6.923616476         1.860560683         5.992628336
     6.923616476         1.860560683        18.633304834
     6.923616476         1.860560683        31.273980141
     6.923616476        10.984355783         5.992628336
     6.923616476        10.984355783        18.633304834
     6.923616476        10.984355783        31.273980141
    15.614813353         1.860560683        18.633304834
    15.614813353        10.984355783        18.633304834
     6.113180135         6.422457961         5.992628336
     6.113180135         6.422457961        18.633304834
     6.113180135        15.546253061         5.992628336
     6.113180135        15.546253061        18.633304834
    14.804377530         6.422457961        18.633304834
    14.804377530         6.422457961        31.273980141
    14.804377530        15.546253061        18.633304834
    14.804377530        15.546253061        31.273980141
     2.578017778         2.701336594         6.648047566
     2.578017778         2.701336594        19.288723469
     2.578017778        11.825130606         6.648047566
     2.578017778        11.825130606        19.288723469
    11.269214656         2.701336594        19.288723469
    11.269214656         2.701336594        31.929399967
    11.269214656        11.825130606        19.288723469
    11.269214656        11.825130606        31.929399967
