This file is generated by VASPKIT code  
   1.00000000000000     
    17.3823947905999994    0.0000000000000000    0.0000000000000000
     0.0000000000000000   18.2475891113000017    0.0000000000000000
     0.0000000000000000    0.0000000000000000   40.0000000000000000
   Cs   Pb   I 
    36    32   104
Direct
  0.4893801207663675  0.4704495862347595  0.0892682379894607
  0.4893480998090782  0.4652093574494800  0.3950211405749968
  0.4893801207663675  0.4704495862347595  0.7007739835605422
  0.4893801207663675  0.9704495564417875  0.0892682379894607
  0.4893480998090782  0.9652093276565079  0.3950211405749968
  0.4893801207663675  0.9704495564417875  0.7007739835605422
  0.9910359470481805  0.4646650562778787  0.3950211405749968
  0.9910359470481805  0.9646650264849067  0.3950211405749968
  0.0086291465616448  0.0306806493295045  0.2340520926736562
  0.0086291465616448  0.0306806493295045  0.5559901735763487
  0.0086291465616448  0.5306806437041021  0.2340520926736562
  0.0086291465616448  0.5306806437041021  0.5559901735763487
  0.5081255090083894  0.0358017130287752  0.2389286771420069
  0.5081255090083894  0.0358017130287752  0.5511135891079981
  0.5081255090083894  0.5358017074033730  0.2389286771420069
  0.5081255090083894  0.5358017074033730  0.5511135891079981
  0.2383619051540650  0.2828054692962120  0.2364508011714123
  0.2383619051540650  0.2828054692962120  0.5535914650785925
  0.2383619051540650  0.7828054693153896  0.2364508011714123
  0.2383619051540650  0.7828054693153896  0.5535914650785925
  0.7437886156956111  0.2848224129479460  0.2385440173417828
  0.7437886156956111  0.2848224129479460  0.5514982489082220
  0.7437886156956111  0.7848224129671231  0.2385440173417828
  0.7437886156956111  0.7848224129671231  0.5514982489082220
  0.2385543603650031  0.2222290127606411  0.0883520548265347
  0.2588456203953557  0.2142518596596722  0.3950211405749968
  0.2385543603650031  0.2222290127606411  0.7016901667234684
  0.2385543603650031  0.7222290127798188  0.0883520548265347
  0.2588456203953557  0.7142518596788495  0.3950211405749968
  0.2385543603650031  0.7222290127798188  0.7016901667234684
  0.7597121226320201  0.2160506336825390  0.0863043003968110
  0.7614575491878520  0.2147346410327449  0.3950211405749968
  0.7597121226320201  0.2160506336825390  0.7037379211531918
  0.7597121226320201  0.7160506337017165  0.0863043003968110
  0.7614575491878520  0.7147346410519225  0.3950211405749968
  0.7597121226320201  0.7160506337017165  0.7037379211531918
  0.2500742100216992 -0.0002634544348906  0.3147369470704919
  0.2480685576861046 -0.0007372437700660  0.6371909715773071
  0.2500742100216992  0.4997365455842867  0.3147369470704919
  0.2480685576861046  0.4992627562491115  0.6371909715773071
  0.7513440658391438  0.0007101973968322  0.3151184388358048
  0.7508700180622917  0.0006515483230208  0.6366657811305738
  0.7513440658391438  0.5007101974160100  0.3151184388358048
  0.7508700180622917  0.5006515483421982  0.6366657811305738
 -0.0002825608528730  0.2496494670616157  0.3146428378780581
 -0.0023049582443690  0.2508955347386678  0.6386619902335231
 -0.0002825608528730  0.7496494670259889  0.3146428378780581
 -0.0023049582443690  0.7508955347030413  0.6386619902335231
  0.4993312219772417  0.2508403738498508  0.3154182745850532
  0.5057247637779336  0.2512108906606399  0.6345158973528319
  0.4993312219772417  0.7508403738142242  0.3154182745850532
  0.5057247637779336  0.7512108906250137  0.6345158973528319
  0.2480685576861046 -0.0007372437700660  0.1528513095726937
  0.2500742100216992 -0.0002634544348906  0.4753053042795100
  0.2480685576861046  0.4992627562491115  0.1528513095726937
  0.2500742100216992  0.4997365455842867  0.4753053042795100
  0.7508700180622917  0.0006515483230208  0.1533765000194269
  0.7513440658391438  0.0007101973968322  0.4749238125141971
  0.7508700180622917  0.5006515483421982  0.1533765000194269
  0.7513440658391438  0.5007101974160100  0.4749238125141971
 -0.0023049582443690  0.2508955347386678  0.1513802909164773
 -0.0002825608528730  0.2496494670616157  0.4753994134719438
 -0.0023049582443690  0.7508955347030413  0.1513802909164773
 -0.0002825608528730  0.7496494670259889  0.4753994134719438
  0.5057247637779336  0.2512108906606399  0.1555263837971685
  0.4993312219772417  0.2508403738498508  0.4746239767649486
  0.5057247637779336  0.7512108906250137  0.1555263837971685
  0.4993312219772417  0.7508403738142242  0.4746239767649486
  0.0179463166548010  0.2539954900023242  0.0766989151677552
  0.0353461519891629  0.2543273188648806  0.3950211405749968
  0.0179463166548010  0.2539954900023242  0.7133433063822476
  0.0179463166548010  0.7539954899667048  0.0766989151677552
  0.0353461519891629  0.7543273188292611  0.3950211405749968
  0.0179463166548010  0.7539954899667048  0.7133433063822476
  0.5324776001221705  0.2578497524141324  0.0789763650689676
  0.5371203442129144  0.2546256700845014  0.3950211405749968
  0.5324776001221705  0.2578497524141324  0.7110658564810355
  0.5324776001221705  0.7578497523785133  0.0789763650689676
  0.5371203442129144  0.7546256700488820  0.3950211405749968
  0.5324776001221705  0.7578497523785133  0.7110658564810355
  0.4654212049087654  0.2474979347257082  0.2376577532082295
  0.4654212049087654  0.2474979347257082  0.5523845130417758
  0.4654212049087654  0.7474979347448927  0.2376577532082295
  0.4654212049087654  0.7474979347448927  0.5523845130417758
  0.9685522219009196  0.2437020795321202  0.2371744334191392
  0.9685522219009196  0.2437020795321202  0.5528678328308649
  0.9685522219009196  0.7437020795513042  0.2371744334191392
  0.9685522219009196  0.7437020795513042  0.5528678328308649
  0.2833615918228002  0.4943175077716110  0.2369796266153771
  0.2833615918228002  0.4943175077716110  0.5530626396346277
  0.2833615918228002  0.9943175673603040  0.2369796266153771
  0.2833615918228002  0.9943175673603040  0.5530626396346277
  0.7835755092758726  0.4970983435451592  0.2372014493779275
  0.7835755092758726  0.4970983435451592  0.5528408168720776
  0.7835755092758726  0.9970984031338522  0.2372014493779275
  0.7835755092758726  0.9970984031338522  0.5528408168720776
  0.2536576532373419  0.0081246933936753  0.0763172132987395
  0.2147706515184474  0.0035839128110928  0.3950211405749968
  0.2536576532373419  0.0081246933936753  0.7137250082512635
  0.2536576532373419  0.5081246901247525  0.0763172132987395
  0.2147706515184474  0.5035839095421699  0.3950211405749968
  0.2536576532373419  0.5081246901247525  0.7137250082512635
  0.7096003257767962  0.0076062868232506  0.0786790276658114
  0.7140019994066494  0.0045215721272995  0.3950211405749968
  0.7096003257767962  0.0076062868232506  0.7113631938841918
  0.7096003257767962  0.5076062835543279  0.0786790276658114
  0.7140019994066494  0.5045215688583767  0.3950211405749968
  0.7096003257767962  0.5076062835543279  0.7113631938841918
  0.4012433336425941  0.1010482104067566  0.3278902244632034
  0.3993666855920792  0.1064315214577293  0.6382494543045549
  0.4012433336425941  0.6010482402380903  0.3278902244632034
  0.3993666855920792  0.6064315512890632  0.6382494543045549
  0.9019233427534876  0.1005771986444019  0.3280362311013804
  0.8998750398734702  0.1003075640004585  0.6445780196154759
  0.9019233427534876  0.6005772284757360  0.3280362311013804
  0.8998750398734702  0.6003075938317922  0.6445780196154759
  0.0979314177744406  0.3997914862029014  0.3036944756020692
  0.1053773975757977  0.3921763713055219  0.6237922425715245
  0.0979314177744406  0.8997914564099224  0.3036944756020692
  0.1053773975757977  0.8921763415125432  0.6237922425715245
  0.5990014167888271  0.3996246762957885  0.3047242040128366
  0.5991806386068843  0.4012362454203098  0.6194267789243383
  0.5990014167888271  0.8996246465028099  0.3047242040128366
  0.5991806386068843  0.9012362156273312  0.6194267789243383
  0.1515972063882290  0.1490158861437075  0.3042616577405236
  0.1454740344282547  0.1444615135093472  0.6221934213698670
  0.1515972063882290  0.6490158563507359  0.3042616577405236
  0.1454740344282547  0.6444614837163752  0.6221934213698670
  0.6514955825079837  0.1496379618334333  0.3045886281060738
  0.6525014416850564  0.1494256511970239  0.6199579004058147
  0.6514955825079837  0.6496379320404617  0.3045886281060738
  0.6525014416850564  0.6494256214040524  0.6199579004058147
  0.3482097151397729  0.3504735191475370  0.3282169734922683
  0.3518262488658356  0.3512696208505334  0.6416837773298733
  0.3482097151397729  0.8504735489788781  0.3282169734922683
  0.3518262488658356  0.8512696506818741  0.6416837773298733
  0.8490225839173607  0.3510931741816860  0.3278175732635265
  0.8448302168050277  0.3493407852304116  0.6393382577020544
  0.8490225839173607  0.8510932040130273  0.3278175732635265
  0.8448302168050277  0.8493408150617527  0.6393382577020544
  0.1053773975757977  0.3921763713055219  0.1662499938534772
  0.0979314177744406  0.3997914862029014  0.4863477757479326
  0.1053773975757977  0.8921763415125432  0.1662499938534772
  0.0979314177744406  0.8997914564099224  0.4863477757479326
  0.5991806386068843  0.4012362454203098  0.1706154575006636
  0.5990014167888271  0.3996246762957885  0.4853180473371653
  0.5991806386068843  0.9012362156273312  0.1706154575006636
  0.5990014167888271  0.8996246465028099  0.4853180473371653
  0.3993666855920792  0.1064315214577293  0.1517927970454470
  0.4012433336425941  0.1010482104067566  0.4621520268867984
  0.3993666855920792  0.6064315512890632  0.1517927970454470
  0.4012433336425941  0.6010482402380903  0.4621520268867984
  0.8998750398734702  0.1003075640004585  0.1454642317345257
  0.9019233427534876  0.1005771986444019  0.4620060202486215
  0.8998750398734702  0.6003075938317922  0.1454642317345257
  0.9019233427534876  0.6005772284757360  0.4620060202486215
  0.3518262488658356  0.3512696208505334  0.1483584740201287
  0.3482097151397729  0.3504735191475370  0.4618252778577335
  0.3518262488658356  0.8512696506818741  0.1483584740201287
  0.3482097151397729  0.8504735489788781  0.4618252778577335
  0.8448302168050277  0.3493407852304116  0.1507039936479476
  0.8490225839173607  0.3510931741816860  0.4622246780864753
  0.8448302168050277  0.8493408150617527  0.1507039936479476
  0.8490225839173607  0.8510932040130273  0.4622246780864753
  0.1454740344282547  0.1444615135093472  0.1678488150551349
  0.1515972063882290  0.1490158861437075  0.4857805936094783
  0.1454740344282547  0.6444614837163752  0.1678488150551349
  0.1515972063882290  0.6490158563507359  0.4857805936094783
  0.6525014416850564  0.1494256511970239  0.1700843360191877
  0.6514955825079837  0.1496379618334333  0.4854536232439280
  0.6525014416850564  0.6494256214040524  0.1700843360191877
  0.6514955825079837  0.6496379320404617  0.4854536232439280
 
  0.00000000E+00  0.00000000E+00  0.00000000E+00
  0.00000000E+00  0.00000000E+00  0.00000000E+00
  0.00000000E+00  0.00000000E+00  0.00000000E+00
  0.00000000E+00  0.00000000E+00  0.00000000E+00
  0.00000000E+00  0.00000000E+00  0.00000000E+00
  0.00000000E+00  0.00000000E+00  0.00000000E+00
  0.00000000E+00  0.00000000E+00  0.00000000E+00
  0.00000000E+00  0.00000000E+00  0.00000000E+00
  0.00000000E+00  0.00000000E+00  0.00000000E+00
  0.00000000E+00  0.00000000E+00  0.00000000E+00
  0.00000000E+00  0.00000000E+00  0.00000000E+00
  0.00000000E+00  0.00000000E+00  0.00000000E+00
  0.00000000E+00  0.00000000E+00  0.00000000E+00
  0.00000000E+00  0.00000000E+00  0.00000000E+00
  0.00000000E+00  0.00000000E+00  0.00000000E+00
  0.00000000E+00  0.00000000E+00  0.00000000E+00
  0.00000000E+00  0.00000000E+00  0.00000000E+00
  0.00000000E+00  0.00000000E+00  0.00000000E+00
  0.00000000E+00  0.00000000E+00  0.00000000E+00
  0.00000000E+00  0.00000000E+00  0.00000000E+00
  0.00000000E+00  0.00000000E+00  0.00000000E+00
  0.00000000E+00  0.00000000E+00  0.00000000E+00
  0.00000000E+00  0.00000000E+00  0.00000000E+00
  0.00000000E+00  0.00000000E+00  0.00000000E+00
  0.00000000E+00  0.00000000E+00  0.00000000E+00
  0.00000000E+00  0.00000000E+00  0.00000000E+00
  0.00000000E+00  0.00000000E+00  0.00000000E+00
  0.00000000E+00  0.00000000E+00  0.00000000E+00
  0.00000000E+00  0.00000000E+00  0.00000000E+00
  0.00000000E+00  0.00000000E+00  0.00000000E+00
  0.00000000E+00  0.00000000E+00  0.00000000E+00
  0.00000000E+00  0.00000000E+00  0.00000000E+00
  0.00000000E+00  0.00000000E+00  0.00000000E+00
  0.00000000E+00  0.00000000E+00  0.00000000E+00
  0.00000000E+00  0.00000000E+00  0.00000000E+00
  0.00000000E+00  0.00000000E+00  0.00000000E+00
  0.00000000E+00  0.00000000E+00  0.00000000E+00
  0.00000000E+00  0.00000000E+00  0.00000000E+00
  0.00000000E+00  0.00000000E+00  0.00000000E+00
  0.00000000E+00  0.00000000E+00  0.00000000E+00
  0.00000000E+00  0.00000000E+00  0.00000000E+00
  0.00000000E+00  0.00000000E+00  0.00000000E+00
  0.00000000E+00  0.00000000E+00  0.00000000E+00
  0.00000000E+00  0.00000000E+00  0.00000000E+00
  0.00000000E+00  0.00000000E+00  0.00000000E+00
  0.00000000E+00  0.00000000E+00  0.00000000E+00
  0.00000000E+00  0.00000000E+00  0.00000000E+00
  0.00000000E+00  0.00000000E+00  0.00000000E+00
  0.00000000E+00  0.00000000E+00  0.00000000E+00
  0.00000000E+00  0.00000000E+00  0.00000000E+00
  0.00000000E+00  0.00000000E+00  0.00000000E+00
  0.00000000E+00  0.00000000E+00  0.00000000E+00
  0.00000000E+00  0.00000000E+00  0.00000000E+00
  0.00000000E+00  0.00000000E+00  0.00000000E+00
  0.00000000E+00  0.00000000E+00  0.00000000E+00
  0.00000000E+00  0.00000000E+00  0.00000000E+00
  0.00000000E+00  0.00000000E+00  0.00000000E+00
  0.00000000E+00  0.00000000E+00  0.00000000E+00
  0.00000000E+00  0.00000000E+00  0.00000000E+00
  0.00000000E+00  0.00000000E+00  0.00000000E+00
  0.00000000E+00  0.00000000E+00  0.00000000E+00
  0.00000000E+00  0.00000000E+00  0.00000000E+00
  0.00000000E+00  0.00000000E+00  0.00000000E+00
  0.00000000E+00  0.00000000E+00  0.00000000E+00
  0.00000000E+00  0.00000000E+00  0.00000000E+00
  0.00000000E+00  0.00000000E+00  0.00000000E+00
  0.00000000E+00  0.00000000E+00  0.00000000E+00
  0.00000000E+00  0.00000000E+00  0.00000000E+00
  0.00000000E+00  0.00000000E+00  0.00000000E+00
  0.00000000E+00  0.00000000E+00  0.00000000E+00
  0.00000000E+00  0.00000000E+00  0.00000000E+00
  0.00000000E+00  0.00000000E+00  0.00000000E+00
  0.00000000E+00  0.00000000E+00  0.00000000E+00
  0.00000000E+00  0.00000000E+00  0.00000000E+00
  0.00000000E+00  0.00000000E+00  0.00000000E+00
  0.00000000E+00  0.00000000E+00  0.00000000E+00
  0.00000000E+00  0.00000000E+00  0.00000000E+00
  0.00000000E+00  0.00000000E+00  0.00000000E+00
  0.00000000E+00  0.00000000E+00  0.00000000E+00
  0.00000000E+00  0.00000000E+00  0.00000000E+00
  0.00000000E+00  0.00000000E+00  0.00000000E+00
  0.00000000E+00  0.00000000E+00  0.00000000E+00
  0.00000000E+00  0.00000000E+00  0.00000000E+00
  0.00000000E+00  0.00000000E+00  0.00000000E+00
  0.00000000E+00  0.00000000E+00  0.00000000E+00
  0.00000000E+00  0.00000000E+00  0.00000000E+00
  0.00000000E+00  0.00000000E+00  0.00000000E+00
  0.00000000E+00  0.00000000E+00  0.00000000E+00
  0.00000000E+00  0.00000000E+00  0.00000000E+00
  0.00000000E+00  0.00000000E+00  0.00000000E+00
  0.00000000E+00  0.00000000E+00  0.00000000E+00
  0.00000000E+00  0.00000000E+00  0.00000000E+00
  0.00000000E+00  0.00000000E+00  0.00000000E+00
  0.00000000E+00  0.00000000E+00  0.00000000E+00
  0.00000000E+00  0.00000000E+00  0.00000000E+00
  0.00000000E+00  0.00000000E+00  0.00000000E+00
  0.00000000E+00  0.00000000E+00  0.00000000E+00
  0.00000000E+00  0.00000000E+00  0.00000000E+00
  0.00000000E+00  0.00000000E+00  0.00000000E+00
  0.00000000E+00  0.00000000E+00  0.00000000E+00
  0.00000000E+00  0.00000000E+00  0.00000000E+00
  0.00000000E+00  0.00000000E+00  0.00000000E+00
  0.00000000E+00  0.00000000E+00  0.00000000E+00
  0.00000000E+00  0.00000000E+00  0.00000000E+00
  0.00000000E+00  0.00000000E+00  0.00000000E+00
  0.00000000E+00  0.00000000E+00  0.00000000E+00
  0.00000000E+00  0.00000000E+00  0.00000000E+00
  0.00000000E+00  0.00000000E+00  0.00000000E+00
  0.00000000E+00  0.00000000E+00  0.00000000E+00
  0.00000000E+00  0.00000000E+00  0.00000000E+00
  0.00000000E+00  0.00000000E+00  0.00000000E+00
  0.00000000E+00  0.00000000E+00  0.00000000E+00
  0.00000000E+00  0.00000000E+00  0.00000000E+00
  0.00000000E+00  0.00000000E+00  0.00000000E+00
  0.00000000E+00  0.00000000E+00  0.00000000E+00
  0.00000000E+00  0.00000000E+00  0.00000000E+00
  0.00000000E+00  0.00000000E+00  0.00000000E+00
  0.00000000E+00  0.00000000E+00  0.00000000E+00
  0.00000000E+00  0.00000000E+00  0.00000000E+00
  0.00000000E+00  0.00000000E+00  0.00000000E+00
  0.00000000E+00  0.00000000E+00  0.00000000E+00
  0.00000000E+00  0.00000000E+00  0.00000000E+00
  0.00000000E+00  0.00000000E+00  0.00000000E+00
  0.00000000E+00  0.00000000E+00  0.00000000E+00
  0.00000000E+00  0.00000000E+00  0.00000000E+00
  0.00000000E+00  0.00000000E+00  0.00000000E+00
  0.00000000E+00  0.00000000E+00  0.00000000E+00
  0.00000000E+00  0.00000000E+00  0.00000000E+00
  0.00000000E+00  0.00000000E+00  0.00000000E+00
  0.00000000E+00  0.00000000E+00  0.00000000E+00
  0.00000000E+00  0.00000000E+00  0.00000000E+00
  0.00000000E+00  0.00000000E+00  0.00000000E+00
  0.00000000E+00  0.00000000E+00  0.00000000E+00
  0.00000000E+00  0.00000000E+00  0.00000000E+00
  0.00000000E+00  0.00000000E+00  0.00000000E+00
  0.00000000E+00  0.00000000E+00  0.00000000E+00
  0.00000000E+00  0.00000000E+00  0.00000000E+00
  0.00000000E+00  0.00000000E+00  0.00000000E+00
  0.00000000E+00  0.00000000E+00  0.00000000E+00
  0.00000000E+00  0.00000000E+00  0.00000000E+00
  0.00000000E+00  0.00000000E+00  0.00000000E+00
  0.00000000E+00  0.00000000E+00  0.00000000E+00
  0.00000000E+00  0.00000000E+00  0.00000000E+00
  0.00000000E+00  0.00000000E+00  0.00000000E+00
  0.00000000E+00  0.00000000E+00  0.00000000E+00
  0.00000000E+00  0.00000000E+00  0.00000000E+00
  0.00000000E+00  0.00000000E+00  0.00000000E+00
  0.00000000E+00  0.00000000E+00  0.00000000E+00
  0.00000000E+00  0.00000000E+00  0.00000000E+00
  0.00000000E+00  0.00000000E+00  0.00000000E+00
  0.00000000E+00  0.00000000E+00  0.00000000E+00
  0.00000000E+00  0.00000000E+00  0.00000000E+00
  0.00000000E+00  0.00000000E+00  0.00000000E+00
  0.00000000E+00  0.00000000E+00  0.00000000E+00
  0.00000000E+00  0.00000000E+00  0.00000000E+00
  0.00000000E+00  0.00000000E+00  0.00000000E+00
  0.00000000E+00  0.00000000E+00  0.00000000E+00
  0.00000000E+00  0.00000000E+00  0.00000000E+00
  0.00000000E+00  0.00000000E+00  0.00000000E+00
  0.00000000E+00  0.00000000E+00  0.00000000E+00
  0.00000000E+00  0.00000000E+00  0.00000000E+00
  0.00000000E+00  0.00000000E+00  0.00000000E+00
  0.00000000E+00  0.00000000E+00  0.00000000E+00
  0.00000000E+00  0.00000000E+00  0.00000000E+00
  0.00000000E+00  0.00000000E+00  0.00000000E+00
  0.00000000E+00  0.00000000E+00  0.00000000E+00
  0.00000000E+00  0.00000000E+00  0.00000000E+00
  0.00000000E+00  0.00000000E+00  0.00000000E+00
  0.00000000E+00  0.00000000E+00  0.00000000E+00
  0.00000000E+00  0.00000000E+00  0.00000000E+00
  0.00000000E+00  0.00000000E+00  0.00000000E+00
  0.00000000E+00  0.00000000E+00  0.00000000E+00
