This file is generated by VASPKIT code  
   1.00000000000000     
    12.6406764983999995    0.0000000000000000    0.0000000000000000
     0.0000000000000000   25.2016296386999983    0.0000000000000000
     0.0000000000000000    1.8348134680999999   51.7578896671000024
   Cs   Pb   I 
    28    32    96
Direct
  0.2500000000316405  0.4879939320294772  0.2280416529166861
  0.2500000000316405  0.4898166447313543  0.4804144845824034
  0.2500000000316405  0.0063605043284812  0.2288596450487271
  0.2500000000316405  0.0066901588706994  0.4798069084038783
  0.2500000000316405  0.2596143691090803  0.1273319090587458
  0.2500000000316405  0.2490394776822965  0.3545587091511770
  0.2500000000316405  0.2584554622990075  0.5944875726514620
  0.2500000000316405  0.7461842872356250  0.3528201529675173
  0.7500000595854175  0.0298764598306119  0.2490953011884978
  0.7500000595854175  0.0316991986024016  0.5014681775430473
  0.7500000595854175  0.5130029782685218  0.2497028773670226
  0.7500000595854175  0.5133325722711771  0.5006501854110056
  0.7500000595854175  0.2612376441266840  0.1350222578275984
  0.7500000595854175  0.2706536585444599  0.3749511213085633
  0.7500000595854175  0.2600787969291004  0.6021779065240344
  0.7500000595854175  0.7735089085626790  0.3766896774922229
  0.7500000595854175  0.0354588111708843  0.3704135866603264
  0.7500000595854175  0.5289707575931871  0.3713031666649989
  0.7500000595854175  0.2821480962081894  0.2448838284336163
  0.7500000595854175  0.2813805948562191  0.4918158869585079
  0.7500000595854175  0.7769397997150627  0.2424438500158932
  0.7500000595854175  0.7810272923883221  0.4944197523506658
  0.2500000000316405  0.4842342710633639  0.3590962736112931
  0.2500000000316405  0.9907223786177312  0.3582066936066206
  0.2500000000316405  0.2383124966763123  0.2376939584168318
  0.2500000000316405  0.2375450102175020  0.4846260020454436
  0.2500000000316405  0.7386657842364397  0.2350900930246737
  0.2500000000316405  0.7427532768831888  0.4870659804631666
 -0.0000850117694207  0.3831562337186992  0.3029397996939134
  0.0026567784672798  0.3873818654597939  0.5536662405609003
  0.0000397518316832  0.8828368979995623  0.3048755065600692
 -0.0037151185032973  0.8912670875440956  0.5428132365249770
 -0.0026567784672798  0.1323112409658905  0.1758435899181598
  0.0000850117694207  0.1365368876003165  0.4265700605777061
  0.0037151185032973  0.6284260486534787  0.1866965939540828
 -0.0000397518316832  0.6368561785723493  0.4246343537115503
 -0.0006613646988408  0.1332536284148616  0.3030359431852755
  0.0005015528759026  0.1380884310843369  0.5542070302180434
 -0.0026409646334446  0.6331667233319013  0.3045416442694593
  0.0049192173662544  0.6337083966011032  0.5430788786177549
 -0.0005015528759026  0.3816046753016709  0.1753028002610164
  0.0006613646988408  0.3864394929041610  0.4264739170863440
 -0.0049192173662544  0.8859847396361478  0.1864309518613047
  0.0026409646334446  0.8865263532796871  0.4249682160021602
  0.5000850117535970  0.3831562337186992  0.3029397996939134
  0.4973432215168965  0.3873818654597939  0.5536662405609003
  0.4999602481524928  0.8828368979995623  0.3048755065600692
  0.5037151184874733  0.8912670875440956  0.5428132365249770
  0.5026567784514563  0.1323112409658905  0.1758435899181598
  0.4999149882147555  0.1365368876003165  0.4265700605777061
  0.4962848814808788  0.6284260486534787  0.1866965939540828
  0.5000397518158594  0.6368561785723493  0.4246343537115503
  0.5006613646830171  0.1332536284148616  0.3030359431852755
  0.4994984471082736  0.1380884310843369  0.5542070302180434
  0.5026409646176209  0.6331667233319013  0.3045416442694593
  0.4950807826179218  0.6337083966011032  0.5430788786177549
  0.5005015528600788  0.3816046753016709  0.1753028002610164
  0.4993386352853356  0.3864394929041610  0.4264739170863440
  0.5049192173504303  0.8859847396361478  0.1864309518613047
  0.4973590353507318  0.8865263532796871  0.4249682160021602
  0.2500000000316405  0.1181626896672578  0.3134325899439781
  0.2500000000316405  0.1307112678546705  0.5480272561757462
  0.2500000000316405  0.6153405881999907  0.3150183003167873
  0.2500000000316405  0.6372994852416469  0.5562282572659839
  0.2500000000316405  0.3625402064664808  0.1857827525716915
  0.2500000000316405  0.3667556403586856  0.4356319587995413
  0.2500000000316405  0.8710614324940305  0.1930557613040431
  0.2500000000316405  0.8710191833428491  0.4396434831864772
  0.7500000595854175  0.3889818236659232  0.1814825593877150
  0.7500000595854175  0.4015304391101826  0.4160772703469610
  0.7500000595854175  0.8823935913711778  0.1732815582974765
  0.7500000595854175  0.9043524884101908  0.4144915599741518
  0.7500000595854175  0.1529374362806852  0.2938779014720782
  0.7500000595854175  0.1571529297311219  0.5437271077192477
  0.7500000595854175  0.6486739528680621  0.2898663770851423
  0.7500000595854175  0.6486317037551577  0.5364540989868961
  0.7500000595854175  0.1242202158645406  0.1857332591014164
  0.7500000595854175  0.1145906034991520  0.4337072767760345
  0.7500000595854175  0.6200889339631164  0.1918755835671825
  0.7500000595854175  0.6117178013396088  0.4348144294155288
  0.7500000595854175  0.3611446350269903  0.3104737833634760
  0.7500000595854175  0.3768661420684190  0.5493283736556247
  0.7500000595854175  0.8542826382919907  0.3105839116193780
  0.7500000595854175  0.8705853686342060  0.5553287973304544
  0.2500000000316405  0.4051025252677656  0.2958025536837058
  0.2500000000316405  0.3954728607483198  0.5437765862739230
  0.2500000000316405  0.9079752752600495  0.2946954010442114
  0.2500000000316405  0.8996041426616455  0.5376342618081570
  0.2500000000316405  0.1428269494772786  0.1801814568234353
  0.2500000000316405  0.1585484862800882  0.4190360470962572
  0.2500000000316405  0.6491077079640455  0.1741810331486055
  0.2500000000316405  0.6654105575063133  0.4189259188403551
  0.0023416921536309  0.3577924783280919  0.1193687062435445
  0.0357976090579009  0.3621909479066071  0.3653798197849682
  0.0083662457645040  0.3550840808690268  0.6096054215207573
  0.0435838096297001  0.8599244755838812  0.3654447062645900
  0.0268438420374379  0.1120035887389380  0.2440150612362880
  0.0270610760170738  0.1149593209404648  0.4858685784291558
  0.0473582901910178  0.6038745224494300  0.2440028388851012
  0.0457351616806248  0.6102109062509304  0.4863158423065771
  0.9916337728737423  0.1646090702099697  0.1199044387508621
  0.9642024095803458  0.1575021733857343  0.3641299809015322
  0.9976583264846156  0.1619006579112126  0.6101411316739961
  0.9564162090085467  0.6597686010010263  0.3640650944219104
  0.9729389426211724  0.4047337779857111  0.2436412520499042
  0.9731561766008087  0.4076895549079664  0.4854947692234451
  0.9542648569576213  0.9094821703869977  0.2431939881724828
  0.9526417284472285  0.9158186137892279  0.4855069915746321
  0.9581740323639431  0.5083025249541910  0.3157407331226594
  0.9704159560170385  0.5135959677767382  0.5586178618245979
  0.9562115926140721  0.0066273335475915  0.3153555177294254
  0.9684298897469312  0.0115727262815107  0.5577647102671808
  0.9796678353319890  0.2560290653723292  0.1938360430336601
  0.9596983891697554  0.2607869654239673  0.4369198234509543
  0.9844245128171746  0.7555262294523337  0.1943901399975886
  0.9573696506144928  0.7607141736924394  0.4374433181308504
  0.0295840626212089  0.0060971558437181  0.1708919984470216
  0.0418259862743038  0.0113905935752907  0.4137690973370738
  0.0315701288913149  0.5081204667392252  0.1717451500044383
  0.0437884260241745  0.5130657439924846  0.4141543127303078
  0.0403016294684911  0.2589061708027889  0.2925900070087860
  0.0203321833062572  0.2636640410665287  0.5356737725491195
  0.0426303680237536  0.7589790817448570  0.2920665123288899
  0.0155755058210720  0.7641668471590912  0.5351196755851915
  0.5083662271579052  0.1646090702099697  0.1199044387508621
  0.5357975904513018  0.1575021733857343  0.3641299809015322
  0.5023416735470320  0.1619006579112126  0.6101411316739961
  0.5435837910231008  0.6597686010010263  0.3640650944219104
  0.5270610574104752  0.4047337779857111  0.2436412520499042
  0.5268438234308389  0.4076895549079664  0.4854947692234451
  0.5457351430740263  0.9094821703869977  0.2431939881724828
  0.5473582715844191  0.9158186137892279  0.4855069915746321
  0.4976582966760833  0.3577924783280919  0.1193687062435445
  0.4642023797718132  0.3621909479066071  0.3653798197849682
  0.4916337430652098  0.3550840808690268  0.6096054215207573
  0.4564161792000138  0.8599244755838812  0.3654447062645900
  0.4731561467922759  0.1120035887389380  0.2440150612362880
  0.4729389128126404  0.1149593209404648  0.4858685784291558
  0.4526416986386962  0.6038745224494300  0.2440028388851012
  0.4542648271490891  0.6102109062509304  0.4863158423065771
  0.4704159262085051  0.0060971558437181  0.1708919984470216
  0.4581740025554102  0.0113905935752907  0.4137690973370738
  0.4684298599383990  0.5081204667392252  0.1717451500044383
  0.4562115628055393  0.5130657439924846  0.4141543127303078
  0.4596983593612230  0.2589061708027889  0.2925900070087860
  0.4796678055234568  0.2636640410665287  0.5356737725491195
  0.4573696208059606  0.7589790817448570  0.2920665123288899
  0.4844244830086421  0.7641668471590912  0.5351196755851915
  0.5418259676677045  0.5083025249541910  0.3157407331226594
  0.5295840440146091  0.5135959677767382  0.5586178618245979
  0.5437884074175755  0.0066273335475915  0.3153555177294254
  0.5315701102847163  0.0115727262815107  0.5577647102671808
  0.5203321646996586  0.2560290653723292  0.1938360430336601
  0.5403016108618922  0.2607869654239673  0.4369198234509543
  0.5155754872144730  0.7555262294523337  0.1943901399975886
  0.5426303494171548  0.7607141736924394  0.4374433181308504
 
  0.00000000E+00  0.00000000E+00  0.00000000E+00
  0.00000000E+00  0.00000000E+00  0.00000000E+00
  0.00000000E+00  0.00000000E+00  0.00000000E+00
  0.00000000E+00  0.00000000E+00  0.00000000E+00
  0.00000000E+00  0.00000000E+00  0.00000000E+00
  0.00000000E+00  0.00000000E+00  0.00000000E+00
  0.00000000E+00  0.00000000E+00  0.00000000E+00
  0.00000000E+00  0.00000000E+00  0.00000000E+00
  0.00000000E+00  0.00000000E+00  0.00000000E+00
  0.00000000E+00  0.00000000E+00  0.00000000E+00
  0.00000000E+00  0.00000000E+00  0.00000000E+00
  0.00000000E+00  0.00000000E+00  0.00000000E+00
  0.00000000E+00  0.00000000E+00  0.00000000E+00
  0.00000000E+00  0.00000000E+00  0.00000000E+00
  0.00000000E+00  0.00000000E+00  0.00000000E+00
  0.00000000E+00  0.00000000E+00  0.00000000E+00
  0.00000000E+00  0.00000000E+00  0.00000000E+00
  0.00000000E+00  0.00000000E+00  0.00000000E+00
  0.00000000E+00  0.00000000E+00  0.00000000E+00
  0.00000000E+00  0.00000000E+00  0.00000000E+00
  0.00000000E+00  0.00000000E+00  0.00000000E+00
  0.00000000E+00  0.00000000E+00  0.00000000E+00
  0.00000000E+00  0.00000000E+00  0.00000000E+00
  0.00000000E+00  0.00000000E+00  0.00000000E+00
  0.00000000E+00  0.00000000E+00  0.00000000E+00
  0.00000000E+00  0.00000000E+00  0.00000000E+00
  0.00000000E+00  0.00000000E+00  0.00000000E+00
  0.00000000E+00  0.00000000E+00  0.00000000E+00
  0.00000000E+00  0.00000000E+00  0.00000000E+00
  0.00000000E+00  0.00000000E+00  0.00000000E+00
  0.00000000E+00  0.00000000E+00  0.00000000E+00
  0.00000000E+00  0.00000000E+00  0.00000000E+00
  0.00000000E+00  0.00000000E+00  0.00000000E+00
  0.00000000E+00  0.00000000E+00  0.00000000E+00
  0.00000000E+00  0.00000000E+00  0.00000000E+00
  0.00000000E+00  0.00000000E+00  0.00000000E+00
  0.00000000E+00  0.00000000E+00  0.00000000E+00
  0.00000000E+00  0.00000000E+00  0.00000000E+00
  0.00000000E+00  0.00000000E+00  0.00000000E+00
  0.00000000E+00  0.00000000E+00  0.00000000E+00
  0.00000000E+00  0.00000000E+00  0.00000000E+00
  0.00000000E+00  0.00000000E+00  0.00000000E+00
  0.00000000E+00  0.00000000E+00  0.00000000E+00
  0.00000000E+00  0.00000000E+00  0.00000000E+00
  0.00000000E+00  0.00000000E+00  0.00000000E+00
  0.00000000E+00  0.00000000E+00  0.00000000E+00
  0.00000000E+00  0.00000000E+00  0.00000000E+00
  0.00000000E+00  0.00000000E+00  0.00000000E+00
  0.00000000E+00  0.00000000E+00  0.00000000E+00
  0.00000000E+00  0.00000000E+00  0.00000000E+00
  0.00000000E+00  0.00000000E+00  0.00000000E+00
  0.00000000E+00  0.00000000E+00  0.00000000E+00
  0.00000000E+00  0.00000000E+00  0.00000000E+00
  0.00000000E+00  0.00000000E+00  0.00000000E+00
  0.00000000E+00  0.00000000E+00  0.00000000E+00
  0.00000000E+00  0.00000000E+00  0.00000000E+00
  0.00000000E+00  0.00000000E+00  0.00000000E+00
  0.00000000E+00  0.00000000E+00  0.00000000E+00
  0.00000000E+00  0.00000000E+00  0.00000000E+00
  0.00000000E+00  0.00000000E+00  0.00000000E+00
  0.00000000E+00  0.00000000E+00  0.00000000E+00
  0.00000000E+00  0.00000000E+00  0.00000000E+00
  0.00000000E+00  0.00000000E+00  0.00000000E+00
  0.00000000E+00  0.00000000E+00  0.00000000E+00
  0.00000000E+00  0.00000000E+00  0.00000000E+00
  0.00000000E+00  0.00000000E+00  0.00000000E+00
  0.00000000E+00  0.00000000E+00  0.00000000E+00
  0.00000000E+00  0.00000000E+00  0.00000000E+00
  0.00000000E+00  0.00000000E+00  0.00000000E+00
  0.00000000E+00  0.00000000E+00  0.00000000E+00
  0.00000000E+00  0.00000000E+00  0.00000000E+00
  0.00000000E+00  0.00000000E+00  0.00000000E+00
  0.00000000E+00  0.00000000E+00  0.00000000E+00
  0.00000000E+00  0.00000000E+00  0.00000000E+00
  0.00000000E+00  0.00000000E+00  0.00000000E+00
  0.00000000E+00  0.00000000E+00  0.00000000E+00
  0.00000000E+00  0.00000000E+00  0.00000000E+00
  0.00000000E+00  0.00000000E+00  0.00000000E+00
  0.00000000E+00  0.00000000E+00  0.00000000E+00
  0.00000000E+00  0.00000000E+00  0.00000000E+00
  0.00000000E+00  0.00000000E+00  0.00000000E+00
  0.00000000E+00  0.00000000E+00  0.00000000E+00
  0.00000000E+00  0.00000000E+00  0.00000000E+00
  0.00000000E+00  0.00000000E+00  0.00000000E+00
  0.00000000E+00  0.00000000E+00  0.00000000E+00
  0.00000000E+00  0.00000000E+00  0.00000000E+00
  0.00000000E+00  0.00000000E+00  0.00000000E+00
  0.00000000E+00  0.00000000E+00  0.00000000E+00
  0.00000000E+00  0.00000000E+00  0.00000000E+00
  0.00000000E+00  0.00000000E+00  0.00000000E+00
  0.00000000E+00  0.00000000E+00  0.00000000E+00
  0.00000000E+00  0.00000000E+00  0.00000000E+00
  0.00000000E+00  0.00000000E+00  0.00000000E+00
  0.00000000E+00  0.00000000E+00  0.00000000E+00
  0.00000000E+00  0.00000000E+00  0.00000000E+00
  0.00000000E+00  0.00000000E+00  0.00000000E+00
  0.00000000E+00  0.00000000E+00  0.00000000E+00
  0.00000000E+00  0.00000000E+00  0.00000000E+00
  0.00000000E+00  0.00000000E+00  0.00000000E+00
  0.00000000E+00  0.00000000E+00  0.00000000E+00
  0.00000000E+00  0.00000000E+00  0.00000000E+00
  0.00000000E+00  0.00000000E+00  0.00000000E+00
  0.00000000E+00  0.00000000E+00  0.00000000E+00
  0.00000000E+00  0.00000000E+00  0.00000000E+00
  0.00000000E+00  0.00000000E+00  0.00000000E+00
  0.00000000E+00  0.00000000E+00  0.00000000E+00
  0.00000000E+00  0.00000000E+00  0.00000000E+00
  0.00000000E+00  0.00000000E+00  0.00000000E+00
  0.00000000E+00  0.00000000E+00  0.00000000E+00
  0.00000000E+00  0.00000000E+00  0.00000000E+00
  0.00000000E+00  0.00000000E+00  0.00000000E+00
  0.00000000E+00  0.00000000E+00  0.00000000E+00
  0.00000000E+00  0.00000000E+00  0.00000000E+00
  0.00000000E+00  0.00000000E+00  0.00000000E+00
  0.00000000E+00  0.00000000E+00  0.00000000E+00
  0.00000000E+00  0.00000000E+00  0.00000000E+00
  0.00000000E+00  0.00000000E+00  0.00000000E+00
  0.00000000E+00  0.00000000E+00  0.00000000E+00
  0.00000000E+00  0.00000000E+00  0.00000000E+00
  0.00000000E+00  0.00000000E+00  0.00000000E+00
  0.00000000E+00  0.00000000E+00  0.00000000E+00
  0.00000000E+00  0.00000000E+00  0.00000000E+00
  0.00000000E+00  0.00000000E+00  0.00000000E+00
  0.00000000E+00  0.00000000E+00  0.00000000E+00
  0.00000000E+00  0.00000000E+00  0.00000000E+00
  0.00000000E+00  0.00000000E+00  0.00000000E+00
  0.00000000E+00  0.00000000E+00  0.00000000E+00
  0.00000000E+00  0.00000000E+00  0.00000000E+00
  0.00000000E+00  0.00000000E+00  0.00000000E+00
  0.00000000E+00  0.00000000E+00  0.00000000E+00
  0.00000000E+00  0.00000000E+00  0.00000000E+00
  0.00000000E+00  0.00000000E+00  0.00000000E+00
  0.00000000E+00  0.00000000E+00  0.00000000E+00
  0.00000000E+00  0.00000000E+00  0.00000000E+00
  0.00000000E+00  0.00000000E+00  0.00000000E+00
  0.00000000E+00  0.00000000E+00  0.00000000E+00
  0.00000000E+00  0.00000000E+00  0.00000000E+00
  0.00000000E+00  0.00000000E+00  0.00000000E+00
  0.00000000E+00  0.00000000E+00  0.00000000E+00
  0.00000000E+00  0.00000000E+00  0.00000000E+00
  0.00000000E+00  0.00000000E+00  0.00000000E+00
  0.00000000E+00  0.00000000E+00  0.00000000E+00
  0.00000000E+00  0.00000000E+00  0.00000000E+00
  0.00000000E+00  0.00000000E+00  0.00000000E+00
  0.00000000E+00  0.00000000E+00  0.00000000E+00
  0.00000000E+00  0.00000000E+00  0.00000000E+00
  0.00000000E+00  0.00000000E+00  0.00000000E+00
  0.00000000E+00  0.00000000E+00  0.00000000E+00
  0.00000000E+00  0.00000000E+00  0.00000000E+00
  0.00000000E+00  0.00000000E+00  0.00000000E+00
  0.00000000E+00  0.00000000E+00  0.00000000E+00
  0.00000000E+00  0.00000000E+00  0.00000000E+00
  0.00000000E+00  0.00000000E+00  0.00000000E+00
  0.00000000E+00  0.00000000E+00  0.00000000E+00
  0.00000000E+00  0.00000000E+00  0.00000000E+00
  0.00000000E+00  0.00000000E+00  0.00000000E+00
