This file is generated by VASPKIT code  
   1.00000000000000     
    17.3823947905999994    0.0000000000000000    0.0000000000000000
     0.0000000000000000   18.2475891113000017    0.0000000000000000
     0.0000000000000000    0.0000000000000000   37.9220275878999971
   Cs   Pb   I 
    24    32   104
Direct
  0.4994585717974290  0.4860381500945667  0.4078459494052611
  0.4994585717974290  0.4860381500945667  0.7588207073406075
  0.4994585717974290  0.9860381501137515  0.4078459494052611
  0.4994585717974290  0.9860381501137515  0.7588207073406075
 -0.0005414281622975  0.4860381500945667  0.4078459494052611
 -0.0005414281622975  0.4860381500945667  0.7588207073406075
 -0.0005414281622975  0.9860381501137515  0.4078459494052611
 -0.0005414281622975  0.9860381501137515  0.7588207073406075
  0.0095742357837550  0.0342709007752195  0.5833333134607557
  0.0095742357837550  0.5342708970130803  0.5833333134607557
  0.5095742434179185  0.0342709007752195  0.5833333134607557
  0.5095742434179185  0.5342708970130803  0.5833333134607557
  0.2404257714850901  0.2842708970034878  0.5833333134607557
  0.2404257714850901  0.7842708970226655  0.5833333134607557
  0.7404257565677002  0.2842708970034878  0.5833333134607557
  0.7404257565677002  0.7842708970226655  0.5833333134607557
  0.2505414282054415  0.2360381500849815  0.4078459494052611
  0.2505414282054415  0.2360381500849815  0.7588207073406075
  0.2505414282054415  0.7360381501041592  0.4078459494052611
  0.2505414282054415  0.7360381501041592  0.7588207073406075
  0.7505414281881828  0.2360381500849815  0.4078459494052611
  0.7505414281881828  0.2360381500849815  0.7588207073406075
  0.7505414281881828  0.7360381501041592  0.4078459494052611
  0.7505414281881828  0.7360381501041592  0.7588207073406075
  0.2505458729580404 -0.0063848174042930  0.3193784592479548
  0.2505828144612469  0.0027174368333742  0.6686931276267221
  0.2505458729580404  0.4936151826148846  0.3193784592479548
  0.2505828144612469  0.5027174368525517  0.6686931276267221
  0.7505458729407809 -0.0063848174042930  0.3193784592479548
  0.7505828144439873  0.0027174368333742  0.6686931276267221
  0.7505458729407809  0.4936151826148846  0.3193784592479548
  0.7505828144439873  0.5027174368525517  0.6686931276267221
 -0.0005458729379038  0.2436151826052993  0.3193784592479548
 -0.0005828144411100  0.2527174368429665  0.6686931276267221
 -0.0005458729379038  0.7436151825696730  0.3193784592479548
 -0.0005828144411100  0.7527174368073398  0.6686931276267221
  0.4994541270448373  0.2436151826052993  0.3193784592479548
  0.4994171855416313  0.2527174368429665  0.6686931276267221
  0.4994541270448373  0.7436151825696730  0.3193784592479548
  0.4994171855416313  0.7527174368073398  0.6686931276267221
  0.2505828144612469  0.0027174368333742  0.4979735589171406
  0.2505458729580404 -0.0063848174042930  0.8472881974715445
  0.2505828144612469  0.5027174368525517  0.4979735589171406
  0.2505458729580404  0.4936151826148846  0.8472881974715445
  0.7505828144439873  0.0027174368333742  0.4979735589171406
  0.7505458729407809 -0.0063848174042930  0.8472881974715445
  0.7505828144439873  0.5027174368525517  0.4979735589171406
  0.7505458729407809  0.4936151826148846  0.8472881974715445
 -0.0005828144411100  0.2527174368429665  0.4979735589171406
 -0.0005458729379038  0.2436151826052993  0.8472881974715445
 -0.0005828144411100  0.7527174368073398  0.4979735589171406
 -0.0005458729379038  0.7436151825696730  0.8472881974715445
  0.4994171855416313  0.2527174368429665  0.4979735589171406
  0.4994541270448373  0.2436151826052993  0.8472881974715445
  0.4994171855416313  0.7527174368073398  0.4979735589171406
  0.4994541270448373  0.7436151825696730  0.8472881974715445
  0.0211090731270340  0.2581035742007617  0.4178944295487809
  0.0211090731270340  0.2581035742007617  0.7487722271970867
  0.0211090731270340  0.7581035741651427  0.4178944295487809
  0.0211090731270340  0.7581035741651427  0.7487722271970869
  0.5211090637900054  0.2581035742007617  0.4178944295487809
  0.5211090637900054  0.2581035742007617  0.7487722271970869
  0.5211090637900054  0.7581035741651427  0.4178944295487809
  0.5211090637900054  0.7581035741651427  0.7487722271970869
  0.4922251179052102  0.2442622712367371  0.2446062360460479
  0.4694947168916369  0.2482169279709888  0.5833333134607557
  0.4922251179052102  0.2442622712367371  0.9220604504978080
  0.4922251179052102  0.7442622712559216  0.2446062360460479
  0.4694947168916369  0.7482169279901735  0.5833333134607557
  0.4922251179052102  0.7442622712559216  0.9220604504978080
  0.9922251179454832  0.2442622712367371  0.2446062360460479
  0.9694947169319102  0.2482169279709888  0.5833333134607557
  0.9922251179454832  0.2442622712367371  0.9220604504978080
  0.9922251179454832  0.7442622712559216  0.2446062360460479
  0.9694947169319104  0.7482169279901735  0.5833333134607557
  0.9922251179454832  0.7442622712559216  0.9220604504978080
  0.2577748820976604  0.4942622712463296  0.2446062360460479
  0.2805052831112337  0.4982169279805812  0.5833333134607557
  0.2577748820976604  0.4942622712463296  0.9220604504978080
  0.2577748820976604  0.9942622712107098  0.2446062360460479
  0.2805052831112337  0.9982169279449616  0.5833333134607557
  0.2577748820976604  0.9942622712107098  0.9220604504978080
  0.7577748820804019  0.4942622712463296  0.2446062360460479
  0.7805052830939748  0.4982169279805812  0.5833333134607557
  0.7577748820804019  0.4942622712463296  0.9220604504978080
  0.7577748820804019  0.9942622712107098  0.2446062360460479
  0.7805052830939747  0.9982169279449616  0.5833333134607557
  0.7577748820804019  0.9942622712107098  0.9220604504978080
  0.2288909213127417  0.0081035772052702  0.4178944295487809
  0.2288909213127417  0.0081035772052702  0.7487722271970869
  0.2288909213127417  0.5081035741555504  0.4178944295487809
  0.2288909213127417  0.5081035741555504  0.7487722271970867
  0.7288909361956132  0.0081035772052702  0.4178944295487809
  0.7288909361956132  0.0081035772052702  0.7487722271970869
  0.7288909361956132  0.5081035741555504  0.4178944295487809
  0.7288909361956132  0.5081035741555504  0.7487722271970869
  0.3766658291415761  0.1180019081666147  0.3391051059949801
  0.4028038387545511  0.1013388720543208  0.6762265985629505
  0.3766658291415760  0.6180018783736362  0.3391051059949801
  0.4028038387545511  0.6013388422613420  0.6762265985629505
  0.8766657993240481  0.1180019081666147  0.3391051059949801
  0.9028038089370231  0.1013388720543208  0.6762265985629505
  0.8766657993240481  0.6180018783736362  0.3391051059949801
  0.9028038089370231  0.6013388422613420  0.6762265985629505
  0.1255114796472063  0.3693919085976913  0.3352172414295052
  0.1000244878209304  0.3998610372267133  0.6562529271506036
  0.1255114796472063  0.8693919384290318  0.3352172414295052
  0.1000244878209304  0.8998610670580541  0.6562529271506036
  0.6255115094877418  0.3693919085976913  0.3352172414295052
  0.6000245176614655  0.3998610372267133  0.6562529271506036
  0.6255115094877418  0.8693919384290318  0.3352172414295052
  0.6000245176614655  0.8998610670580541  0.6562529271506036
  0.1244885203153979  0.1193919085880988  0.3352172414295052
  0.1499755121416737  0.1498610372171210  0.6562529271506036
  0.1244885203153979  0.6193919384194395  0.3352172414295052
  0.1499755121416737  0.6498610670484618  0.6562529271506036
  0.6244884905554023  0.1193919085880988  0.3352172414295052
  0.6499754823816787  0.1498610372171209  0.6562529271506036
  0.6244884905554023  0.6193919384194395  0.3352172414295052
  0.6499754823816787  0.6498610670484618  0.6562529271506036
  0.3733341708613016  0.3680019081762000  0.3391051059949801
  0.3471961612483266  0.3513388720639060  0.6762265985629505
  0.3733341708613016  0.8680018783832285  0.3391051059949801
  0.3471961612483266  0.8513388422709344  0.6762265985629505
  0.8733342006443114  0.3680019081762000  0.3391051059949801
  0.8471961910313365  0.3513388720639060  0.6762265985629505
  0.8733342006443114  0.8680018783832285  0.3391051059949801
  0.8471961910313365  0.8513388422709344  0.6762265985629505
  0.1000244878209304  0.3998610372267133  0.5104137593932593
  0.1255114796472063  0.3693919085976913  0.8314493854920135
  0.1000244878209305  0.8998610670580541  0.5104137593932593
  0.1255114796472063  0.8693919384290318  0.8314493854920135
  0.6000245176614655  0.3998610372267133  0.5104137593932593
  0.6255115094877418  0.3693919085976913  0.8314493854920135
  0.6000245176614655  0.8998610670580541  0.5104137593932593
  0.6255115094877418  0.8693919384290318  0.8314493854920135
  0.4028038387545511  0.1013388720543208  0.4904400879809129
  0.3766658291415761  0.1180019081666147  0.8275615507245195
  0.4028038387545511  0.6013388422613420  0.4904400879809129
  0.3766658291415760  0.6180018783736362  0.8275615507245195
  0.9028038089370231  0.1013388720543208  0.4904400879809129
  0.8766657993240481  0.1180019081666147  0.8275615507245195
  0.9028038089370231  0.6013388422613420  0.4904400879809129
  0.8766657993240481  0.6180018783736362  0.8275615507245195
  0.3471961612483266  0.3513388720639060  0.4904400879809129
  0.3733341708613016  0.3680019081762000  0.8275615507245195
  0.3471961612483266  0.8513388422709344  0.4904400879809129
  0.3733341708613016  0.8680018783832285  0.8275615507245195
  0.8471961910313365  0.3513388720639060  0.4904400879809129
  0.8733342006443114  0.3680019081762000  0.8275615507245195
  0.8471961910313365  0.8513388422709344  0.4904400879809129
  0.8733342006443114  0.8680018783832285  0.8275615507245195
  0.1499755121416737  0.1498610372171210  0.5104137593932593
  0.1244885203153979  0.1193919085880988  0.8314493854920135
  0.1499755121416737  0.6498610670484618  0.5104137593932593
  0.1244885203153979  0.6193919384194395  0.8314493854920135
  0.6499754823816787  0.1498610372171210  0.5104137593932593
  0.6244884905554023  0.1193919085880988  0.8314493854920135
  0.6499754823816787  0.6498610670484618  0.5104137593932593
  0.6244884905554023  0.6193919384194395  0.8314493854920135
 
  0.00000000E+00  0.00000000E+00  0.00000000E+00
  0.00000000E+00  0.00000000E+00  0.00000000E+00
  0.00000000E+00  0.00000000E+00  0.00000000E+00
  0.00000000E+00  0.00000000E+00  0.00000000E+00
  0.00000000E+00  0.00000000E+00  0.00000000E+00
  0.00000000E+00  0.00000000E+00  0.00000000E+00
  0.00000000E+00  0.00000000E+00  0.00000000E+00
  0.00000000E+00  0.00000000E+00  0.00000000E+00
  0.00000000E+00  0.00000000E+00  0.00000000E+00
  0.00000000E+00  0.00000000E+00  0.00000000E+00
  0.00000000E+00  0.00000000E+00  0.00000000E+00
  0.00000000E+00  0.00000000E+00  0.00000000E+00
  0.00000000E+00  0.00000000E+00  0.00000000E+00
  0.00000000E+00  0.00000000E+00  0.00000000E+00
  0.00000000E+00  0.00000000E+00  0.00000000E+00
  0.00000000E+00  0.00000000E+00  0.00000000E+00
  0.00000000E+00  0.00000000E+00  0.00000000E+00
  0.00000000E+00  0.00000000E+00  0.00000000E+00
  0.00000000E+00  0.00000000E+00  0.00000000E+00
  0.00000000E+00  0.00000000E+00  0.00000000E+00
  0.00000000E+00  0.00000000E+00  0.00000000E+00
  0.00000000E+00  0.00000000E+00  0.00000000E+00
  0.00000000E+00  0.00000000E+00  0.00000000E+00
  0.00000000E+00  0.00000000E+00  0.00000000E+00
  0.00000000E+00  0.00000000E+00  0.00000000E+00
  0.00000000E+00  0.00000000E+00  0.00000000E+00
  0.00000000E+00  0.00000000E+00  0.00000000E+00
  0.00000000E+00  0.00000000E+00  0.00000000E+00
  0.00000000E+00  0.00000000E+00  0.00000000E+00
  0.00000000E+00  0.00000000E+00  0.00000000E+00
  0.00000000E+00  0.00000000E+00  0.00000000E+00
  0.00000000E+00  0.00000000E+00  0.00000000E+00
  0.00000000E+00  0.00000000E+00  0.00000000E+00
  0.00000000E+00  0.00000000E+00  0.00000000E+00
  0.00000000E+00  0.00000000E+00  0.00000000E+00
  0.00000000E+00  0.00000000E+00  0.00000000E+00
  0.00000000E+00  0.00000000E+00  0.00000000E+00
  0.00000000E+00  0.00000000E+00  0.00000000E+00
  0.00000000E+00  0.00000000E+00  0.00000000E+00
  0.00000000E+00  0.00000000E+00  0.00000000E+00
  0.00000000E+00  0.00000000E+00  0.00000000E+00
  0.00000000E+00  0.00000000E+00  0.00000000E+00
  0.00000000E+00  0.00000000E+00  0.00000000E+00
  0.00000000E+00  0.00000000E+00  0.00000000E+00
  0.00000000E+00  0.00000000E+00  0.00000000E+00
  0.00000000E+00  0.00000000E+00  0.00000000E+00
  0.00000000E+00  0.00000000E+00  0.00000000E+00
  0.00000000E+00  0.00000000E+00  0.00000000E+00
  0.00000000E+00  0.00000000E+00  0.00000000E+00
  0.00000000E+00  0.00000000E+00  0.00000000E+00
  0.00000000E+00  0.00000000E+00  0.00000000E+00
  0.00000000E+00  0.00000000E+00  0.00000000E+00
  0.00000000E+00  0.00000000E+00  0.00000000E+00
  0.00000000E+00  0.00000000E+00  0.00000000E+00
  0.00000000E+00  0.00000000E+00  0.00000000E+00
  0.00000000E+00  0.00000000E+00  0.00000000E+00
  0.00000000E+00  0.00000000E+00  0.00000000E+00
  0.00000000E+00  0.00000000E+00  0.00000000E+00
  0.00000000E+00  0.00000000E+00  0.00000000E+00
  0.00000000E+00  0.00000000E+00  0.00000000E+00
  0.00000000E+00  0.00000000E+00  0.00000000E+00
  0.00000000E+00  0.00000000E+00  0.00000000E+00
  0.00000000E+00  0.00000000E+00  0.00000000E+00
  0.00000000E+00  0.00000000E+00  0.00000000E+00
  0.00000000E+00  0.00000000E+00  0.00000000E+00
  0.00000000E+00  0.00000000E+00  0.00000000E+00
  0.00000000E+00  0.00000000E+00  0.00000000E+00
  0.00000000E+00  0.00000000E+00  0.00000000E+00
  0.00000000E+00  0.00000000E+00  0.00000000E+00
  0.00000000E+00  0.00000000E+00  0.00000000E+00
  0.00000000E+00  0.00000000E+00  0.00000000E+00
  0.00000000E+00  0.00000000E+00  0.00000000E+00
  0.00000000E+00  0.00000000E+00  0.00000000E+00
  0.00000000E+00  0.00000000E+00  0.00000000E+00
  0.00000000E+00  0.00000000E+00  0.00000000E+00
  0.00000000E+00  0.00000000E+00  0.00000000E+00
  0.00000000E+00  0.00000000E+00  0.00000000E+00
  0.00000000E+00  0.00000000E+00  0.00000000E+00
  0.00000000E+00  0.00000000E+00  0.00000000E+00
  0.00000000E+00  0.00000000E+00  0.00000000E+00
  0.00000000E+00  0.00000000E+00  0.00000000E+00
  0.00000000E+00  0.00000000E+00  0.00000000E+00
  0.00000000E+00  0.00000000E+00  0.00000000E+00
  0.00000000E+00  0.00000000E+00  0.00000000E+00
  0.00000000E+00  0.00000000E+00  0.00000000E+00
  0.00000000E+00  0.00000000E+00  0.00000000E+00
  0.00000000E+00  0.00000000E+00  0.00000000E+00
  0.00000000E+00  0.00000000E+00  0.00000000E+00
  0.00000000E+00  0.00000000E+00  0.00000000E+00
  0.00000000E+00  0.00000000E+00  0.00000000E+00
  0.00000000E+00  0.00000000E+00  0.00000000E+00
  0.00000000E+00  0.00000000E+00  0.00000000E+00
  0.00000000E+00  0.00000000E+00  0.00000000E+00
  0.00000000E+00  0.00000000E+00  0.00000000E+00
  0.00000000E+00  0.00000000E+00  0.00000000E+00
  0.00000000E+00  0.00000000E+00  0.00000000E+00
  0.00000000E+00  0.00000000E+00  0.00000000E+00
  0.00000000E+00  0.00000000E+00  0.00000000E+00
  0.00000000E+00  0.00000000E+00  0.00000000E+00
  0.00000000E+00  0.00000000E+00  0.00000000E+00
  0.00000000E+00  0.00000000E+00  0.00000000E+00
  0.00000000E+00  0.00000000E+00  0.00000000E+00
  0.00000000E+00  0.00000000E+00  0.00000000E+00
  0.00000000E+00  0.00000000E+00  0.00000000E+00
  0.00000000E+00  0.00000000E+00  0.00000000E+00
  0.00000000E+00  0.00000000E+00  0.00000000E+00
  0.00000000E+00  0.00000000E+00  0.00000000E+00
  0.00000000E+00  0.00000000E+00  0.00000000E+00
  0.00000000E+00  0.00000000E+00  0.00000000E+00
  0.00000000E+00  0.00000000E+00  0.00000000E+00
  0.00000000E+00  0.00000000E+00  0.00000000E+00
  0.00000000E+00  0.00000000E+00  0.00000000E+00
  0.00000000E+00  0.00000000E+00  0.00000000E+00
  0.00000000E+00  0.00000000E+00  0.00000000E+00
  0.00000000E+00  0.00000000E+00  0.00000000E+00
  0.00000000E+00  0.00000000E+00  0.00000000E+00
  0.00000000E+00  0.00000000E+00  0.00000000E+00
  0.00000000E+00  0.00000000E+00  0.00000000E+00
  0.00000000E+00  0.00000000E+00  0.00000000E+00
  0.00000000E+00  0.00000000E+00  0.00000000E+00
  0.00000000E+00  0.00000000E+00  0.00000000E+00
  0.00000000E+00  0.00000000E+00  0.00000000E+00
  0.00000000E+00  0.00000000E+00  0.00000000E+00
  0.00000000E+00  0.00000000E+00  0.00000000E+00
  0.00000000E+00  0.00000000E+00  0.00000000E+00
  0.00000000E+00  0.00000000E+00  0.00000000E+00
  0.00000000E+00  0.00000000E+00  0.00000000E+00
  0.00000000E+00  0.00000000E+00  0.00000000E+00
  0.00000000E+00  0.00000000E+00  0.00000000E+00
  0.00000000E+00  0.00000000E+00  0.00000000E+00
  0.00000000E+00  0.00000000E+00  0.00000000E+00
  0.00000000E+00  0.00000000E+00  0.00000000E+00
  0.00000000E+00  0.00000000E+00  0.00000000E+00
  0.00000000E+00  0.00000000E+00  0.00000000E+00
  0.00000000E+00  0.00000000E+00  0.00000000E+00
  0.00000000E+00  0.00000000E+00  0.00000000E+00
  0.00000000E+00  0.00000000E+00  0.00000000E+00
  0.00000000E+00  0.00000000E+00  0.00000000E+00
  0.00000000E+00  0.00000000E+00  0.00000000E+00
  0.00000000E+00  0.00000000E+00  0.00000000E+00
  0.00000000E+00  0.00000000E+00  0.00000000E+00
  0.00000000E+00  0.00000000E+00  0.00000000E+00
  0.00000000E+00  0.00000000E+00  0.00000000E+00
  0.00000000E+00  0.00000000E+00  0.00000000E+00
  0.00000000E+00  0.00000000E+00  0.00000000E+00
  0.00000000E+00  0.00000000E+00  0.00000000E+00
  0.00000000E+00  0.00000000E+00  0.00000000E+00
  0.00000000E+00  0.00000000E+00  0.00000000E+00
  0.00000000E+00  0.00000000E+00  0.00000000E+00
  0.00000000E+00  0.00000000E+00  0.00000000E+00
  0.00000000E+00  0.00000000E+00  0.00000000E+00
  0.00000000E+00  0.00000000E+00  0.00000000E+00
  0.00000000E+00  0.00000000E+00  0.00000000E+00
  0.00000000E+00  0.00000000E+00  0.00000000E+00
  0.00000000E+00  0.00000000E+00  0.00000000E+00
  0.00000000E+00  0.00000000E+00  0.00000000E+00
  0.00000000E+00  0.00000000E+00  0.00000000E+00
  0.00000000E+00  0.00000000E+00  0.00000000E+00
  0.00000000E+00  0.00000000E+00  0.00000000E+00
  0.00000000E+00  0.00000000E+00  0.00000000E+00
