This file is generated by VASPKIT code
1.0
       17.3823947906         0.0000000000         0.0000000000
        0.0000000000        18.2475891113         0.0000000000
        0.0000000000         0.0000000000        37.9220275879
   Cs   Pb    I
   24   32  104
Cartesian
     8.625335368         8.808458044        15.800844452
     8.625335368         8.808458044        28.441520691
     8.625335368        17.932252600        15.800844452
     8.625335368        17.932252600        28.441520691
    17.316532764         8.808458044        15.800844452
    17.316532764         8.808458044        28.441520691
    17.316532764        17.932252600        15.800844452
    17.316532764        17.932252600        28.441520691
     0.065861894         0.315336580        22.121182006
     0.065861894         9.439131067        22.121182006
     8.757059422         0.315336580        22.121182006
     8.757059422         9.439131067        22.121182006
     4.279736930         4.877233789        22.121182006
     4.279736930        14.001028345        22.121182006
    12.970934066         4.877233789        22.121182006
    12.970934066        14.001028345        22.121182006
     4.411460725         4.246560766        15.800844452
     4.411460725         4.246560766        28.441520691
     4.411460725        13.370355322        15.800844452
     4.411460725        13.370355322        28.441520691
    13.102658120         4.246560766        15.800844452
    13.102658120         4.246560766        28.441520691
    13.102658120        13.370355322        15.800844452
    13.102658120        13.370355322        28.441520691
     4.345598698         0.000000000        12.640676239
     4.345598698         0.000000000        25.281352479
     4.345598698         9.123794556        12.640676239
     4.345598698         9.123794556        25.281352479
    13.036796093         0.000000000        12.640676239
    13.036796093         0.000000000        25.281352479
    13.036796093         9.123794556        12.640676239
    13.036796093         9.123794556        25.281352479
     0.000000000         4.561897278        12.640676239
     0.000000000         4.561897278        25.281352479
     0.000000000        13.685691833        12.640676239
     0.000000000        13.685691833        25.281352479
     8.691197395         4.561897278        12.640676239
     8.691197395         4.561897278        25.281352479
     8.691197395        13.685691833        12.640676239
     8.691197395        13.685691833        25.281352479
     4.345598698         0.000000000        18.961013794
     4.345598698         0.000000000        31.601688903
     4.345598698         9.123794556        18.961013794
     4.345598698         9.123794556        31.601688903
    13.036796093         0.000000000        18.961013794
    13.036796093         0.000000000        31.601688903
    13.036796093         9.123794556        18.961013794
    13.036796093         9.123794556        31.601688903
     0.000000000         4.561897278        18.961013794
     0.000000000         4.561897278        31.601688903
     0.000000000        13.685691833        18.961013794
     0.000000000        13.685691833        31.601688903
     8.691197395         4.561897278        18.961013794
     8.691197395         4.561897278        31.601688903
     8.691197395        13.685691833        18.961013794
     8.691197395        13.685691833        31.601688903
     0.447414156         4.627050241        15.800844452
     0.447414156         4.627050241        28.441520691
     0.447414156        13.750844796        15.800844452
     0.447414156        13.750844796        28.441520691
     9.138611389         4.627050241        15.800844452
     9.138611389         4.627050241        28.441520691
     9.138611389        13.750844796        15.800844452
     9.138611389        13.750844796        28.441520691
     8.243783401         4.496744315         9.480506897
     8.243783401         4.496744315        22.121182006
     8.243783401         4.496744315        34.761859376
     8.243783401        13.620538871         9.480506897
     8.243783401        13.620538871        22.121182006
     8.243783401        13.620538871        34.761859376
    16.934980797         4.496744315         9.480506897
    16.934980797         4.496744315        22.121182006
    16.934980797         4.496744315        34.761859376
    16.934980797        13.620538871         9.480506897
    16.934980797        13.620538871        22.121182006
    16.934980797        13.620538871        34.761859376
     4.793012692         9.058641593         9.480506897
     4.793012692         9.058641593        22.121182006
     4.793012692         9.058641593        34.761859376
     4.793012692        18.182436148         9.480506897
     4.793012692        18.182436148        22.121182006
     4.793012692        18.182436148        34.761859376
    13.484210087         9.058641593         9.480506897
    13.484210087         9.058641593        22.121182006
    13.484210087         9.058641593        34.761859376
    13.484210087        18.182436148         9.480506897
    13.484210087        18.182436148        22.121182006
    13.484210087        18.182436148        34.761859376
     3.898184445         0.065153018        15.800844452
     3.898184445         0.065153018        28.441520691
     3.898184445         9.188947518        15.800844452
     3.898184445         9.188947518        28.441520691
    12.589382099         0.065153018        15.800844452
    12.589382099         0.065153018        28.441520691
    12.589382099         9.188947518        15.800844452
    12.589382099         9.188947518        28.441520691
     6.923616476         1.860560683        12.968385516
     6.923616476         1.860560683        25.609061756
     6.923616476        10.984354695        12.968385516
     6.923616476        10.984354695        25.609061756
    15.614813353         1.860560683        12.968385516
    15.614813353         1.860560683        25.609061756
    15.614813353        10.984354695        12.968385516
    15.614813353        10.984354695        25.609061756
     1.767580919         7.263233872        12.312965832
     1.767580919         7.263233872        24.953643202
     1.767580919        16.387028972        12.312965832
     1.767580919        16.387028972        24.953643202
    10.458778833         7.263233872        12.312965832
    10.458778833         7.263233872        24.953643202
    10.458778833        16.387028972        12.312965832
    10.458778833        16.387028972        24.953643202
     2.578017778         2.701336594        12.312965832
     2.578017778         2.701336594        24.953643202
     2.578017778        11.825131694        12.312965832
     2.578017778        11.825131694        24.953643202
    11.269214656         2.701336594        12.312965832
    11.269214656         2.701336594        24.953643202
    11.269214656        11.825131694        12.312965832
    11.269214656        11.825131694        24.953643202
     6.113179617         6.422457961        12.968385516
     6.113179617         6.422457961        25.609061756
     6.113179617        15.546251973        12.968385516
     6.113179617        15.546251973        25.609061756
    14.804377530         6.422457961        12.968385516
    14.804377530         6.422457961        25.609061756
    14.804377530        15.546251973        12.968385516
    14.804377530        15.546251973        25.609061756
     1.767580919         7.263233872        19.288723071
     1.767580919         7.263233872        31.929398180
     1.767580919        16.387028972        19.288723071
     1.767580919        16.387028972        31.929398180
    10.458778833         7.263233872        19.288723071
    10.458778833         7.263233872        31.929398180
    10.458778833        16.387028972        19.288723071
    10.458778833        16.387028972        31.929398180
     6.923616476         1.860560683        18.633304517
     6.923616476         1.860560683        31.273979626
     6.923616476        10.984354695        18.633304517
     6.923616476        10.984354695        31.273979626
    15.614813353         1.860560683        18.633304517
    15.614813353         1.860560683        31.273979626
    15.614813353        10.984354695        18.633304517
    15.614813353        10.984354695        31.273979626
     6.113179617         6.422457961        18.633304517
     6.113179617         6.422457961        31.273979626
     6.113179617        15.546251973        18.633304517
     6.113179617        15.546251973        31.273979626
    14.804377530         6.422457961        18.633304517
    14.804377530         6.422457961        31.273979626
    14.804377530        15.546251973        18.633304517
    14.804377530        15.546251973        31.273979626
     2.578017778         2.701336594        19.288723071
     2.578017778         2.701336594        31.929398180
     2.578017778        11.825131694        19.288723071
     2.578017778        11.825131694        31.929398180
    11.269214656         2.701336594        19.288723071
    11.269214656         2.701336594        31.929398180
    11.269214656        11.825131694        19.288723071
    11.269214656        11.825131694        31.929398180
