This file is generated by VASPKIT code  
   1.00000000000000     
    17.3823947905999994    0.0000000000000000    0.0000000000000000
     0.0000000000000000   18.2475891113000017    0.0000000000000000
     0.0000000000000000    0.0000000000000000   40.0000000000000000
   Cs   Pb   I 
    32    32   104
Direct
  0.4879366618859852  0.4727399625669653  0.0888636702617354
  0.4902987385342424  0.4653183327443899  0.3950211405749968
  0.4879366618859852  0.4727399625669653  0.7011785512882677
  0.4879366618859852  0.9727399327739940  0.0888636702617354
  0.4902987385342425  0.9653183029514182  0.3950211405749968
  0.4879366618859852  0.9727399327739940  0.7011785512882677
  0.9907787252886100  0.4656314832045221  0.3950211405749968
  0.9907787252886100  0.9656314534115504  0.3950211405749968
  0.0169354878387720  0.0287959174526045  0.2313054490485741
  0.0169354878387720  0.0287959174526045  0.5587368172014310
  0.0169354878387720  0.5287959118272020  0.2313054490485741
  0.0169354878387720  0.5287959118272020  0.5587368172014310
  0.4993680708948934  0.0286231476090853  0.2377699386813061
  0.4993680708948934  0.0286231476090853  0.5522723275686990
  0.4993680708948934  0.5286231419836834  0.2377699386813061
  0.4993680708948934  0.5286231419836834  0.5522723275686990
  0.2330644893421623  0.2787959118176097  0.2313054490485741
  0.2330644893421623  0.2787959118176097  0.5587368172014310
  0.2330644893421623  0.7787959118367872  0.2313054490485741
  0.2330644893421623  0.7787959118367872  0.5587368172014310
  0.7506319290907252  0.2786231419740905  0.2377699386813061
  0.7506319290907252  0.2786231419740905  0.5522723275686990
  0.7506319290907253  0.7786231419932687  0.2377699386813061
  0.7506319290907253  0.7786231419932687  0.5522723275686990
  0.2592212151540035  0.2156314981010149  0.3950211405749968
  0.2592212151540035  0.7156315130262707  0.3950211405749968
  0.7620633082993644  0.2227399774634583  0.0888636702617354
  0.7597012316511078  0.2153183476408832  0.3950211405749968
  0.7620633082993644  0.2227399774634583  0.7011785512882677
  0.7620633082993644  0.7227399923887142  0.0888636702617354
  0.7597012316511078  0.7153183625661385  0.3950211405749968
  0.7620633082993644  0.7227399923887142  0.7011785512882677
  0.2487476478457824 -0.0016120113301042  0.3147646824125819
  0.2474104379409230  0.0022404431328427  0.6454876815616060
  0.2487476478457823  0.4983879886890735  0.3147646824125819
  0.2474104379409230  0.5022404431520202  0.6454876815616060
  0.7510629186977765 -0.0011427343960734  0.3151100276861566
  0.7490604358642735  0.0008171887731608  0.6358013106510566
  0.7510629186977765  0.4988572656231042  0.3151100276861566
  0.7490604358642735  0.5008171887923386  0.6358013106510566
  0.0012523521743544  0.2483879886794881  0.3147646824125819
  0.0025895620792138  0.2522404431424348  0.6454876815616060
  0.0012523521743544  0.7483879886438615  0.3147646824125819
  0.0025895620792138  0.7522404431068083  0.6454876815616060
  0.4989370812878414  0.2488572656135189  0.3151100276861566
  0.5009395641213445  0.2508171887827532  0.6358013106510566
  0.4989370812878414  0.7488572655778920  0.3151100276861566
  0.5009395641213445  0.7508171887471266  0.6358013106510566
  0.2474104379409230  0.0022404431328427  0.1445545995883952
  0.2487476478457823 -0.0016120113301042  0.4752775689374200
  0.2474104379409230  0.5022404431520202  0.1445545995883952
  0.2487476478457824  0.4983879886890735  0.4752775689374200
  0.7490604358642735  0.0008171887731608  0.1542409704989446
  0.7510629186977765 -0.0011427343960734  0.4749322236638452
  0.7490604358642735  0.5008171887923386  0.1542409704989446
  0.7510629186977765  0.4988572656231042  0.4749322236638452
  0.0025895620792138  0.2522404431424348  0.1445545995883952
  0.0012523521743544  0.2483879886794881  0.4752775689374200
  0.0025895620792138  0.7522404431068083  0.1445545995883952
  0.0012523521743544  0.7483879886438615  0.4752775689374200
  0.5009395641213445  0.2508171887827532  0.1542409704989446
  0.4989370812878414  0.2488572656135189  0.4749322236638452
  0.5009395641213445  0.7508171887471266  0.1542409704989446
  0.4989370812878414  0.7488572655778920  0.4749322236638452
 -0.0104125964113256  0.2531442789649594  0.0718381741376093
  0.0342212539134849  0.2539000998696955  0.3950211405749968
 -0.0104125964113256  0.2531442789649594  0.7182040474123932
 -0.0104125964113256  0.7531442789293391  0.0718381741376093
  0.0342212539134849  0.7539000998340758  0.3950211405749968
 -0.0104125964113256  0.7531442789293391  0.7182040474123932
  0.5379750636464923  0.2591501606643958  0.0802263701643004
  0.5342543678404671  0.2532357821786159  0.3950211405749968
  0.5379750636464923  0.2591501606643958  0.7098158513857024
  0.5379750636464923  0.7591501606287766  0.0802263701643004
  0.5342543678404671  0.7532357821429970  0.3950211405749968
  0.5379750636464923  0.7591501606287766  0.7098158513857024
  0.4618184880849320  0.2450421018894832  0.2389906452782050
  0.4618184880849320  0.2450421018894832  0.5510516209717999
  0.4618184880849320  0.7450421168147461  0.2389906452782050
  0.4618184880849320  0.7450421168147461  0.5510516209717999
  0.9788979419916941  0.2448850865852635  0.2379864075162175
  0.9788979419916941  0.2448850865852635  0.5520558587337873
  0.9788979419916941  0.7448851015105264  0.2379864075162175
  0.9788979419916941  0.7448851015105264  0.5520558587337873
  0.2711020580514498  0.4948851015009337  0.2379864075162175
  0.2711020580514498  0.4948851015009337  0.5520558587337873
  0.2711020580514498  0.9948852207139469  0.2379864075162175
  0.2711020580514498  0.9948852207139469  0.5520558587337873
  0.7881814821004181  0.4950421168051538  0.2389906452782050
  0.7881814821004181  0.4950421168051538  0.5510516209717999
  0.7881814821004181  0.9950422360181665  0.2389906452782049
  0.7881814821004181  0.9950422360181665  0.5510516209717999
  0.2604125908511014  0.0031442824626839  0.0718381741376093
  0.2157787405262910  0.0039001033674203  0.3950211405749968
  0.2604125908511014  0.0031442824626839  0.7182040474123932
  0.2604125908511014  0.5031442789197468  0.0718381741376093
  0.2157787405262910  0.5039000998244835  0.3950211405749968
  0.2604125908511014  0.5031442789197468  0.7182040474123932
  0.7120249363391263  0.0091501641621205  0.0802263701643004
  0.7157456321451515  0.0032357856763411  0.3950211405749968
  0.7120249363391263  0.0091501641621205  0.7098158513857024
  0.7120249363391263  0.5091501606191843  0.0802263701643004
  0.7157456321451515  0.5032357821334047  0.3950211405749968
  0.7120249363391263  0.5091501606191843  0.7098158513857024
  0.3998219175520012  0.1002748449117978  0.3275796376453616
  0.3966221709614497  0.1057612115034135  0.6350514943864772
  0.3998219175520012  0.6002748747431319  0.3275796376453616
  0.3966221709614497  0.6057612413347472  0.6350514943864772
  0.8998108780306867  0.1018982050732114  0.3279533875539727
  0.8914142191368315  0.1114121104076747  0.6366351524881241
  0.8998108780306867  0.6018982349045450  0.3279533875539727
  0.8914142191368315  0.6114121402390088  0.6366351524881241
  0.0970416368895976  0.3997249691344257  0.3051694292326743
  0.1085182499129817  0.3917458191380653  0.6294408795972625
  0.0970416368895976  0.8997249393414470  0.3051694292326743
  0.1085182499129817  0.8917457893450867  0.6294408795972625
  0.6011032464525149  0.3961366708496556  0.3039811886650428
  0.6050981960215677  0.3948901968024656  0.6184782770781919
  0.6011032464525149  0.8961366410566769  0.3039811886650428
  0.6050981960215677  0.8948901670094864  0.6184782770781919
  0.1529583630730066  0.1497249691248335  0.3051694292326743
  0.1414817500496226  0.1417458191284730  0.6294408795972625
  0.1529583630730066  0.6497249393318618  0.3051694292326743
  0.1414817500496226  0.6417457893355015  0.6294408795972625
  0.6488967535906293  0.1461366708400632  0.3039811886650428
  0.6449018040215765  0.1448901967928733  0.6184782770781919
  0.6488967535906293  0.6461366410470917  0.3039811886650428
  0.6449018040215765  0.6448901669999012  0.6184782770781919
  0.3501891219549317  0.3518982050827966  0.3279533875539727
  0.3585857808487873  0.3614121104172599  0.6366351524881241
  0.3501891219549317  0.8518982349141373  0.3279533875539727
  0.3585857808487873  0.8614121402486011  0.6366351524881241
  0.8501781122338858  0.3502748449213830  0.3275796376453616
  0.8533778588244380  0.3557612115129987  0.6350514943864772
  0.8501781122338858  0.8502748747527242  0.3275796376453616
  0.8533778588244380  0.8557612413443395  0.6350514943864772
  0.1085182499129817  0.3917458191380653  0.1606013568277397
  0.0970416368895976  0.3997249691344257  0.4848728221173275
  0.1085182499129817  0.8917457893450867  0.1606013568277397
  0.0970416368895976  0.8997249393414470  0.4848728221173275
  0.6050981960215677  0.3948901968024656  0.1715639593468100
  0.6011032464525149  0.3961366708496556  0.4860610626849590
  0.6050981960215677  0.8948901670094864  0.1715639593468100
  0.6011032464525149  0.8961366410566769  0.4860610626849590
  0.3966221709614497  0.1057612115034135  0.1549907569635245
  0.3998219175520012  0.1002748449117978  0.4624626137046403
  0.3966221709614497  0.6057612413347472  0.1549907569635245
  0.3998219175520012  0.6002748747431319  0.4624626137046403
  0.8914142191368315  0.1114121104076747  0.1534070988618773
  0.8998108780306867  0.1018982050732114  0.4620888637960291
  0.8914142191368315  0.6114121402390088  0.1534070988618773
  0.8998108780306867  0.6018982349045450  0.4620888637960291
  0.3585857808487873  0.3614121104172599  0.1534070988618773
  0.3501891219549317  0.3518982050827966  0.4620888637960291
  0.3585857808487873  0.8614121402486011  0.1534070988618773
  0.3501891219549317  0.8518982349141373  0.4620888637960291
  0.8533778588244380  0.3557612115129987  0.1549907569635245
  0.8501781122338858  0.3502748449213830  0.4624626137046403
  0.8533778588244380  0.8557612413443395  0.1549907569635245
  0.8501781122338858  0.8502748747527242  0.4624626137046403
  0.1414817500496226  0.1417458191284730  0.1606013568277397
  0.1529583630730066  0.1497249691248335  0.4848728221173275
  0.1414817500496226  0.6417457893355015  0.1606013568277397
  0.1529583630730066  0.6497249393318618  0.4848728221173275
  0.6449018040215765  0.1448901967928733  0.1715639593468100
  0.6488967535906293  0.1461366708400632  0.4860610626849590
  0.6449018040215765  0.6448901669999012  0.1715639593468100
  0.6488967535906293  0.6461366410470917  0.4860610626849590
 
  0.00000000E+00  0.00000000E+00  0.00000000E+00
  0.00000000E+00  0.00000000E+00  0.00000000E+00
  0.00000000E+00  0.00000000E+00  0.00000000E+00
  0.00000000E+00  0.00000000E+00  0.00000000E+00
  0.00000000E+00  0.00000000E+00  0.00000000E+00
  0.00000000E+00  0.00000000E+00  0.00000000E+00
  0.00000000E+00  0.00000000E+00  0.00000000E+00
  0.00000000E+00  0.00000000E+00  0.00000000E+00
  0.00000000E+00  0.00000000E+00  0.00000000E+00
  0.00000000E+00  0.00000000E+00  0.00000000E+00
  0.00000000E+00  0.00000000E+00  0.00000000E+00
  0.00000000E+00  0.00000000E+00  0.00000000E+00
  0.00000000E+00  0.00000000E+00  0.00000000E+00
  0.00000000E+00  0.00000000E+00  0.00000000E+00
  0.00000000E+00  0.00000000E+00  0.00000000E+00
  0.00000000E+00  0.00000000E+00  0.00000000E+00
  0.00000000E+00  0.00000000E+00  0.00000000E+00
  0.00000000E+00  0.00000000E+00  0.00000000E+00
  0.00000000E+00  0.00000000E+00  0.00000000E+00
  0.00000000E+00  0.00000000E+00  0.00000000E+00
  0.00000000E+00  0.00000000E+00  0.00000000E+00
  0.00000000E+00  0.00000000E+00  0.00000000E+00
  0.00000000E+00  0.00000000E+00  0.00000000E+00
  0.00000000E+00  0.00000000E+00  0.00000000E+00
  0.00000000E+00  0.00000000E+00  0.00000000E+00
  0.00000000E+00  0.00000000E+00  0.00000000E+00
  0.00000000E+00  0.00000000E+00  0.00000000E+00
  0.00000000E+00  0.00000000E+00  0.00000000E+00
  0.00000000E+00  0.00000000E+00  0.00000000E+00
  0.00000000E+00  0.00000000E+00  0.00000000E+00
  0.00000000E+00  0.00000000E+00  0.00000000E+00
  0.00000000E+00  0.00000000E+00  0.00000000E+00
  0.00000000E+00  0.00000000E+00  0.00000000E+00
  0.00000000E+00  0.00000000E+00  0.00000000E+00
  0.00000000E+00  0.00000000E+00  0.00000000E+00
  0.00000000E+00  0.00000000E+00  0.00000000E+00
  0.00000000E+00  0.00000000E+00  0.00000000E+00
  0.00000000E+00  0.00000000E+00  0.00000000E+00
  0.00000000E+00  0.00000000E+00  0.00000000E+00
  0.00000000E+00  0.00000000E+00  0.00000000E+00
  0.00000000E+00  0.00000000E+00  0.00000000E+00
  0.00000000E+00  0.00000000E+00  0.00000000E+00
  0.00000000E+00  0.00000000E+00  0.00000000E+00
  0.00000000E+00  0.00000000E+00  0.00000000E+00
  0.00000000E+00  0.00000000E+00  0.00000000E+00
  0.00000000E+00  0.00000000E+00  0.00000000E+00
  0.00000000E+00  0.00000000E+00  0.00000000E+00
  0.00000000E+00  0.00000000E+00  0.00000000E+00
  0.00000000E+00  0.00000000E+00  0.00000000E+00
  0.00000000E+00  0.00000000E+00  0.00000000E+00
  0.00000000E+00  0.00000000E+00  0.00000000E+00
  0.00000000E+00  0.00000000E+00  0.00000000E+00
  0.00000000E+00  0.00000000E+00  0.00000000E+00
  0.00000000E+00  0.00000000E+00  0.00000000E+00
  0.00000000E+00  0.00000000E+00  0.00000000E+00
  0.00000000E+00  0.00000000E+00  0.00000000E+00
  0.00000000E+00  0.00000000E+00  0.00000000E+00
  0.00000000E+00  0.00000000E+00  0.00000000E+00
  0.00000000E+00  0.00000000E+00  0.00000000E+00
  0.00000000E+00  0.00000000E+00  0.00000000E+00
  0.00000000E+00  0.00000000E+00  0.00000000E+00
  0.00000000E+00  0.00000000E+00  0.00000000E+00
  0.00000000E+00  0.00000000E+00  0.00000000E+00
  0.00000000E+00  0.00000000E+00  0.00000000E+00
  0.00000000E+00  0.00000000E+00  0.00000000E+00
  0.00000000E+00  0.00000000E+00  0.00000000E+00
  0.00000000E+00  0.00000000E+00  0.00000000E+00
  0.00000000E+00  0.00000000E+00  0.00000000E+00
  0.00000000E+00  0.00000000E+00  0.00000000E+00
  0.00000000E+00  0.00000000E+00  0.00000000E+00
  0.00000000E+00  0.00000000E+00  0.00000000E+00
  0.00000000E+00  0.00000000E+00  0.00000000E+00
  0.00000000E+00  0.00000000E+00  0.00000000E+00
  0.00000000E+00  0.00000000E+00  0.00000000E+00
  0.00000000E+00  0.00000000E+00  0.00000000E+00
  0.00000000E+00  0.00000000E+00  0.00000000E+00
  0.00000000E+00  0.00000000E+00  0.00000000E+00
  0.00000000E+00  0.00000000E+00  0.00000000E+00
  0.00000000E+00  0.00000000E+00  0.00000000E+00
  0.00000000E+00  0.00000000E+00  0.00000000E+00
  0.00000000E+00  0.00000000E+00  0.00000000E+00
  0.00000000E+00  0.00000000E+00  0.00000000E+00
  0.00000000E+00  0.00000000E+00  0.00000000E+00
  0.00000000E+00  0.00000000E+00  0.00000000E+00
  0.00000000E+00  0.00000000E+00  0.00000000E+00
  0.00000000E+00  0.00000000E+00  0.00000000E+00
  0.00000000E+00  0.00000000E+00  0.00000000E+00
  0.00000000E+00  0.00000000E+00  0.00000000E+00
  0.00000000E+00  0.00000000E+00  0.00000000E+00
  0.00000000E+00  0.00000000E+00  0.00000000E+00
  0.00000000E+00  0.00000000E+00  0.00000000E+00
  0.00000000E+00  0.00000000E+00  0.00000000E+00
  0.00000000E+00  0.00000000E+00  0.00000000E+00
  0.00000000E+00  0.00000000E+00  0.00000000E+00
  0.00000000E+00  0.00000000E+00  0.00000000E+00
  0.00000000E+00  0.00000000E+00  0.00000000E+00
  0.00000000E+00  0.00000000E+00  0.00000000E+00
  0.00000000E+00  0.00000000E+00  0.00000000E+00
  0.00000000E+00  0.00000000E+00  0.00000000E+00
  0.00000000E+00  0.00000000E+00  0.00000000E+00
  0.00000000E+00  0.00000000E+00  0.00000000E+00
  0.00000000E+00  0.00000000E+00  0.00000000E+00
  0.00000000E+00  0.00000000E+00  0.00000000E+00
  0.00000000E+00  0.00000000E+00  0.00000000E+00
  0.00000000E+00  0.00000000E+00  0.00000000E+00
  0.00000000E+00  0.00000000E+00  0.00000000E+00
  0.00000000E+00  0.00000000E+00  0.00000000E+00
  0.00000000E+00  0.00000000E+00  0.00000000E+00
  0.00000000E+00  0.00000000E+00  0.00000000E+00
  0.00000000E+00  0.00000000E+00  0.00000000E+00
  0.00000000E+00  0.00000000E+00  0.00000000E+00
  0.00000000E+00  0.00000000E+00  0.00000000E+00
  0.00000000E+00  0.00000000E+00  0.00000000E+00
  0.00000000E+00  0.00000000E+00  0.00000000E+00
  0.00000000E+00  0.00000000E+00  0.00000000E+00
  0.00000000E+00  0.00000000E+00  0.00000000E+00
  0.00000000E+00  0.00000000E+00  0.00000000E+00
  0.00000000E+00  0.00000000E+00  0.00000000E+00
  0.00000000E+00  0.00000000E+00  0.00000000E+00
  0.00000000E+00  0.00000000E+00  0.00000000E+00
  0.00000000E+00  0.00000000E+00  0.00000000E+00
  0.00000000E+00  0.00000000E+00  0.00000000E+00
  0.00000000E+00  0.00000000E+00  0.00000000E+00
  0.00000000E+00  0.00000000E+00  0.00000000E+00
  0.00000000E+00  0.00000000E+00  0.00000000E+00
  0.00000000E+00  0.00000000E+00  0.00000000E+00
  0.00000000E+00  0.00000000E+00  0.00000000E+00
  0.00000000E+00  0.00000000E+00  0.00000000E+00
  0.00000000E+00  0.00000000E+00  0.00000000E+00
  0.00000000E+00  0.00000000E+00  0.00000000E+00
  0.00000000E+00  0.00000000E+00  0.00000000E+00
  0.00000000E+00  0.00000000E+00  0.00000000E+00
  0.00000000E+00  0.00000000E+00  0.00000000E+00
  0.00000000E+00  0.00000000E+00  0.00000000E+00
  0.00000000E+00  0.00000000E+00  0.00000000E+00
  0.00000000E+00  0.00000000E+00  0.00000000E+00
  0.00000000E+00  0.00000000E+00  0.00000000E+00
  0.00000000E+00  0.00000000E+00  0.00000000E+00
  0.00000000E+00  0.00000000E+00  0.00000000E+00
  0.00000000E+00  0.00000000E+00  0.00000000E+00
  0.00000000E+00  0.00000000E+00  0.00000000E+00
  0.00000000E+00  0.00000000E+00  0.00000000E+00
  0.00000000E+00  0.00000000E+00  0.00000000E+00
  0.00000000E+00  0.00000000E+00  0.00000000E+00
  0.00000000E+00  0.00000000E+00  0.00000000E+00
  0.00000000E+00  0.00000000E+00  0.00000000E+00
  0.00000000E+00  0.00000000E+00  0.00000000E+00
  0.00000000E+00  0.00000000E+00  0.00000000E+00
  0.00000000E+00  0.00000000E+00  0.00000000E+00
  0.00000000E+00  0.00000000E+00  0.00000000E+00
  0.00000000E+00  0.00000000E+00  0.00000000E+00
  0.00000000E+00  0.00000000E+00  0.00000000E+00
  0.00000000E+00  0.00000000E+00  0.00000000E+00
  0.00000000E+00  0.00000000E+00  0.00000000E+00
  0.00000000E+00  0.00000000E+00  0.00000000E+00
  0.00000000E+00  0.00000000E+00  0.00000000E+00
  0.00000000E+00  0.00000000E+00  0.00000000E+00
  0.00000000E+00  0.00000000E+00  0.00000000E+00
  0.00000000E+00  0.00000000E+00  0.00000000E+00
  0.00000000E+00  0.00000000E+00  0.00000000E+00
  0.00000000E+00  0.00000000E+00  0.00000000E+00
  0.00000000E+00  0.00000000E+00  0.00000000E+00
  0.00000000E+00  0.00000000E+00  0.00000000E+00
  0.00000000E+00  0.00000000E+00  0.00000000E+00
  0.00000000E+00  0.00000000E+00  0.00000000E+00
  0.00000000E+00  0.00000000E+00  0.00000000E+00
  0.00000000E+00  0.00000000E+00  0.00000000E+00
  0.00000000E+00  0.00000000E+00  0.00000000E+00
