This file is generated by VASPKIT code  
   1.00000000000000     
    17.3823941941652436    0.0000000000000000    0.0000000000000010
     0.0000000000000028   18.2475883808102353    0.0000000000000010
     0.0000000000000000    0.0000000000000000   40.0000000000000000
   Cs   Pb   I 
    32    40   112
Direct
  0.4866968784097284  0.4638211790267499  0.3940443727384725
  0.4839978027100401  0.4670844622515964  0.7164627143060873
  0.4866968784097284  0.9638211790267500  0.3940443727384725
  0.4839978027100401  0.9670844622515966  0.7164627143060873
  0.9866968784097285  0.4638211790267499  0.3940443727384725
  0.9839978027100402  0.4670844622515964  0.7164627143060873
  0.9866968784097285  0.9638211790267500  0.3940443727384725
  0.9839978027100402  0.9670844622515966  0.7164627143060873
  0.0160021972899600  0.0329155377484033  0.2315879904288873
  0.0133031215902715  0.0361788209732502  0.5540063319965018
  0.0160021972899600  0.5329155377484034  0.2315879904288873
  0.0133031215902715  0.5361788209732500  0.5540063319965018
  0.5160021972899598  0.0329155377484033  0.2315879904288873
  0.5133031215902715  0.0361788209732502  0.5540063319965018
  0.5160021972899598  0.5329155377484034  0.2315879904288873
  0.5133031215902715  0.5361788209732500  0.5540063319965018
  0.2339978027100400  0.2829155377484036  0.2315879904288873
  0.2366968784097284  0.2861788209732501  0.5540063319965018
  0.2339978027100400  0.7829155377484034  0.2315879904288873
  0.2366968784097284  0.7861788209732500  0.5540063319965018
  0.7339978027100402  0.2829155377484036  0.2315879904288873
  0.7366968784097285  0.2861788209732501  0.5540063319965018
  0.7339978027100402  0.7829155377484034  0.2315879904288873
  0.7366968784097285  0.7861788209732500  0.5540063319965018
  0.2633031215902716  0.2138211790267498  0.3940443727384725
  0.2660021972899599  0.2170844622515966  0.7164627143060873
  0.2633031215902716  0.7138211790267500  0.3940443727384725
  0.2660021972899599  0.7170844622515966  0.7164627143060873
  0.7633031215902715  0.2138211790267498  0.3940443727384725
  0.7660021972899598  0.2170844622515966  0.7164627143060873
  0.7633031215902715  0.7138211790267500  0.3940443727384725
  0.7660021972899598  0.7170844622515966  0.7164627143060873
  0.2486461113461619 -0.0004100355320220  0.3165014296292175
  0.2513538886538382  0.0004100355320220  0.6315492751057499
  0.2486461113461619  0.4995899644679778  0.3165014296292175
  0.2513538886538382  0.5004100355320221  0.6315492751057499
  0.7486461113461614 -0.0004100355320220  0.3165014296292175
  0.7513538886538386  0.0004100355320220  0.6315492751057499
  0.7486461113461614  0.4995899644679778  0.3165014296292175
  0.7513538886538386  0.5004100355320221  0.6315492751057499
  0.0013538886538382  0.2495899644679780  0.3165014296292175
 -0.0013538886538382  0.2504100355320222  0.6315492751057499
  0.0013538886538382  0.7495899644679779  0.3165014296292175
 -0.0013538886538382  0.7504100355320221  0.6315492751057499
  0.5013538886538386  0.2495899644679780  0.3165014296292175
  0.4986461113461618  0.2504100355320222  0.6315492751057499
  0.5013538886538386  0.7495899644679779  0.3165014296292175
  0.4986461113461618  0.7504100355320221  0.6315492751057499
  0.2599468994497104  0.0071675702342902  0.1611108030898293
  0.2500000000000000 -0.0000000000000000  0.4740253523674838
  0.2400531005502896 -0.0071675702342902  0.7869399016451382
  0.2599468994497104  0.5071675702342899  0.1611108030898293
  0.2500000000000000  0.5000000000000000  0.4740253523674838
  0.2400531005502896  0.4928324297657098  0.7869399016451382
  0.7599468994497105  0.0071675702342902  0.1611108030898293
  0.7500000000000000 -0.0000000000000000  0.4740253523674838
  0.7400531005502895 -0.0071675702342902  0.7869399016451382
  0.7599468994497105  0.5071675702342899  0.1611108030898293
  0.7500000000000000  0.5000000000000000  0.4740253523674838
  0.7400531005502895  0.4928324297657098  0.7869399016451382
 -0.0099468994497105  0.2571675702342902  0.1611108030898293
  0.0000000000000000  0.2500000000000000  0.4740253523674838
  0.0099468994497105  0.2428324297657098  0.7869399016451382
 -0.0099468994497105  0.7571675702342899  0.1611108030898293
  0.0000000000000000  0.7500000000000000  0.4740253523674838
  0.0099468994497105  0.7428324297657101  0.7869399016451382
  0.4900531005502896  0.2571675702342902  0.1611108030898293
  0.5000000000000000  0.2500000000000000  0.4740253523674838
  0.5099468994497105  0.2428324297657098  0.7869399016451382
  0.4900531005502896  0.7571675702342899  0.1611108030898293
  0.5000000000000000  0.7500000000000000  0.4740253523674838
  0.5099468994497105  0.7428324297657101  0.7869399016451382
  0.0399373146747719  0.2546140247147230  0.3948491103954198
  0.0422681426960276  0.2568948229222781  0.7112752416538646
  0.0399373146747719  0.7546140247147227  0.3948491103954198
  0.0422681426960276  0.7568948229222783  0.7112752416538646
  0.5399373146747721  0.2546140247147230  0.3948491103954198
  0.5422681426960274  0.2568948229222781  0.7112752416538646
  0.5399373146747721  0.7546140247147227  0.3948491103954198
  0.5422681426960274  0.7568948229222783  0.7112752416538646
  0.4577318573039725  0.2431051770777219  0.2367754630811097
  0.4600626853252282  0.2453859752852772  0.5532015943395552
  0.4577318573039725  0.7431051770777217  0.2367754630811097
  0.4600626853252282  0.7453859752852773  0.5532015943395552
  0.9577318573039726  0.2431051770777219  0.2367754630811097
  0.9600626853252279  0.2453859752852772  0.5532015943395552
  0.9577318573039726  0.7431051770777217  0.2367754630811097
  0.9600626853252279  0.7453859752852773  0.5532015943395552
  0.2922681426960275  0.4931051770777219  0.2367754630811097
  0.2899373146747718  0.4953859752852770  0.5532015943395552
  0.2922681426960275  0.9931051770777217  0.2367754630811097
  0.2899373146747718  0.9953859752852773  0.5532015943395552
  0.7922681426960274  0.4931051770777219  0.2367754630811097
  0.7899373146747721  0.4953859752852770  0.5532015943395552
  0.7922681426960274  0.9931051770777217  0.2367754630811097
  0.7899373146747721  0.9953859752852773  0.5532015943395552
  0.2100626853252281  0.0046140247147229  0.3948491103954198
  0.2077318573039725  0.0068948229222781  0.7112752416538646
  0.2100626853252281  0.5046140247147227  0.3948491103954198
  0.2077318573039725  0.5068948229222783  0.7112752416538646
  0.7100626853252279  0.0046140247147229  0.3948491103954198
  0.7077318573039726  0.0068948229222781  0.7112752416538646
  0.7100626853252279  0.5046140247147227  0.3948491103954198
  0.7077318573039726  0.5068948229222783  0.7112752416538646
  0.4008393427186127  0.1014697734404270  0.3286754165549968
  0.4028103899263454  0.0992662959902748  0.6451724411140024
  0.4008393427186127  0.6014697734404268  0.3286754165549968
  0.4028103899263454  0.5992662959902750  0.6451724411140024
  0.9008393427186128  0.1014697734404270  0.3286754165549968
  0.9028103899263451  0.0992662959902748  0.6451724411140024
  0.9008393427186128  0.6014697734404268  0.3286754165549968
  0.9028103899263451  0.5992662959902750  0.6451724411140024
  0.0971896100736549  0.4007337040097251  0.3028782636209654
  0.0991606572813872  0.3985302265595730  0.6193752881799715
  0.0971896100736549  0.9007337040097250  0.3028782636209654
  0.0991606572813872  0.8985302265595732  0.6193752881799715
  0.5971896100736549  0.4007337040097251  0.3028782636209654
  0.5991606572813872  0.3985302265595730  0.6193752881799715
  0.5971896100736549  0.9007337040097250  0.3028782636209654
  0.5991606572813872  0.8985302265595732  0.6193752881799715
  0.1528103899263452  0.1507337040097252  0.3028782636209654
  0.1508393427186129  0.1485302265595729  0.6193752881799715
  0.1528103899263452  0.6507337040097250  0.3028782636209654
  0.1508393427186129  0.6485302265595732  0.6193752881799715
  0.6528103899263451  0.1507337040097252  0.3028782636209654
  0.6508393427186128  0.1485302265595729  0.6193752881799715
  0.6528103899263451  0.6507337040097250  0.3028782636209654
  0.6508393427186128  0.6485302265595732  0.6193752881799715
  0.3491606572813873  0.3514697734404270  0.3286754165549968
  0.3471896100736546  0.3492662959902749  0.6451724411140024
  0.3491606572813873  0.8514697734404268  0.3286754165549968
  0.3471896100736546  0.8492662959902750  0.6451724411140024
  0.8491606572813872  0.3514697734404270  0.3286754165549968
  0.8471896100736549  0.3492662959902749  0.6451724411140024
  0.8491606572813872  0.8514697734404268  0.3286754165549968
  0.8471896100736549  0.8492662959902750  0.6451724411140024
  0.1014546343503076  0.3924419622146782  0.1689952964385428
  0.0979210833437484  0.3998967634788115  0.4867828852194116
  0.0920183838579069  0.4058240768694322  0.8017321577780574
  0.1014546343503076  0.8924419622146780  0.1689952964385428
  0.0979210833437484  0.8998967634788115  0.4867828852194116
  0.0920183838579069  0.9058240768694322  0.8017321577780574
  0.6014546343503079  0.3924419622146782  0.1689952964385428
  0.5979210833437484  0.3998967634788115  0.4867828852194116
  0.5920183838579071  0.4058240768694322  0.8017321577780574
  0.6014546343503079  0.8924419622146780  0.1689952964385428
  0.5979210833437484  0.8998967634788115  0.4867828852194116
  0.5920183838579071  0.9058240768694322  0.8017321577780574
  0.4079816161420929  0.0941759231305678  0.1463185469569101
  0.4020789166562518  0.1001032365211885  0.4612678195155560
  0.3985453656496923  0.1075580377853218  0.7790554082964245
  0.4079816161420929  0.5941759231305678  0.1463185469569101
  0.4020789166562518  0.6001032365211885  0.4612678195155560
  0.3985453656496923  0.6075580377853220  0.7790554082964245
  0.9079816161420929  0.0941759231305678  0.1463185469569101
  0.9020789166562516  0.1001032365211885  0.4612678195155560
  0.8985453656496921  0.1075580377853218  0.7790554082964245
  0.9079816161420929  0.5941759231305678  0.1463185469569101
  0.9020789166562516  0.6001032365211885  0.4612678195155560
  0.8985453656496921  0.6075580377853220  0.7790554082964245
  0.3420183838579071  0.3441759231305678  0.1463185469569101
  0.3479210833437482  0.3501032365211885  0.4612678195155560
  0.3514546343503077  0.3575580377853218  0.7790554082964245
  0.3420183838579071  0.8441759231305678  0.1463185469569101
  0.3479210833437482  0.8501032365211885  0.4612678195155560
  0.3514546343503077  0.8575580377853220  0.7790554082964245
  0.8420183838579071  0.3441759231305678  0.1463185469569101
  0.8479210833437484  0.3501032365211885  0.4612678195155560
  0.8514546343503079  0.3575580377853218  0.7790554082964245
  0.8420183838579071  0.8441759231305678  0.1463185469569101
  0.8479210833437484  0.8501032365211885  0.4612678195155560
  0.8514546343503079  0.8575580377853220  0.7790554082964245
  0.1485453656496924  0.1424419622146782  0.1689952964385428
  0.1520789166562515  0.1498967634788115  0.4867828852194116
  0.1579816161420931  0.1558240768694323  0.8017321577780574
  0.1485453656496924  0.6424419622146780  0.1689952964385428
  0.1520789166562515  0.6498967634788115  0.4867828852194116
  0.1579816161420931  0.6558240768694322  0.8017321577780574
  0.6485453656496921  0.1424419622146782  0.1689952964385428
  0.6520789166562516  0.1498967634788115  0.4867828852194116
  0.6579816161420929  0.1558240768694323  0.8017321577780574
  0.6485453656496921  0.6424419622146780  0.1689952964385428
  0.6520789166562516  0.6498967634788115  0.4867828852194116
  0.6579816161420929  0.6558240768694322  0.8017321577780574
 
  0.00000000E+00  0.00000000E+00  0.00000000E+00
  0.00000000E+00  0.00000000E+00  0.00000000E+00
  0.00000000E+00  0.00000000E+00  0.00000000E+00
  0.00000000E+00  0.00000000E+00  0.00000000E+00
  0.00000000E+00  0.00000000E+00  0.00000000E+00
  0.00000000E+00  0.00000000E+00  0.00000000E+00
  0.00000000E+00  0.00000000E+00  0.00000000E+00
  0.00000000E+00  0.00000000E+00  0.00000000E+00
  0.00000000E+00  0.00000000E+00  0.00000000E+00
  0.00000000E+00  0.00000000E+00  0.00000000E+00
  0.00000000E+00  0.00000000E+00  0.00000000E+00
  0.00000000E+00  0.00000000E+00  0.00000000E+00
  0.00000000E+00  0.00000000E+00  0.00000000E+00
  0.00000000E+00  0.00000000E+00  0.00000000E+00
  0.00000000E+00  0.00000000E+00  0.00000000E+00
  0.00000000E+00  0.00000000E+00  0.00000000E+00
  0.00000000E+00  0.00000000E+00  0.00000000E+00
  0.00000000E+00  0.00000000E+00  0.00000000E+00
  0.00000000E+00  0.00000000E+00  0.00000000E+00
  0.00000000E+00  0.00000000E+00  0.00000000E+00
  0.00000000E+00  0.00000000E+00  0.00000000E+00
  0.00000000E+00  0.00000000E+00  0.00000000E+00
  0.00000000E+00  0.00000000E+00  0.00000000E+00
  0.00000000E+00  0.00000000E+00  0.00000000E+00
  0.00000000E+00  0.00000000E+00  0.00000000E+00
  0.00000000E+00  0.00000000E+00  0.00000000E+00
  0.00000000E+00  0.00000000E+00  0.00000000E+00
  0.00000000E+00  0.00000000E+00  0.00000000E+00
  0.00000000E+00  0.00000000E+00  0.00000000E+00
  0.00000000E+00  0.00000000E+00  0.00000000E+00
  0.00000000E+00  0.00000000E+00  0.00000000E+00
  0.00000000E+00  0.00000000E+00  0.00000000E+00
  0.00000000E+00  0.00000000E+00  0.00000000E+00
  0.00000000E+00  0.00000000E+00  0.00000000E+00
  0.00000000E+00  0.00000000E+00  0.00000000E+00
  0.00000000E+00  0.00000000E+00  0.00000000E+00
  0.00000000E+00  0.00000000E+00  0.00000000E+00
  0.00000000E+00  0.00000000E+00  0.00000000E+00
  0.00000000E+00  0.00000000E+00  0.00000000E+00
  0.00000000E+00  0.00000000E+00  0.00000000E+00
  0.00000000E+00  0.00000000E+00  0.00000000E+00
  0.00000000E+00  0.00000000E+00  0.00000000E+00
  0.00000000E+00  0.00000000E+00  0.00000000E+00
  0.00000000E+00  0.00000000E+00  0.00000000E+00
  0.00000000E+00  0.00000000E+00  0.00000000E+00
  0.00000000E+00  0.00000000E+00  0.00000000E+00
  0.00000000E+00  0.00000000E+00  0.00000000E+00
  0.00000000E+00  0.00000000E+00  0.00000000E+00
  0.00000000E+00  0.00000000E+00  0.00000000E+00
  0.00000000E+00  0.00000000E+00  0.00000000E+00
  0.00000000E+00  0.00000000E+00  0.00000000E+00
  0.00000000E+00  0.00000000E+00  0.00000000E+00
  0.00000000E+00  0.00000000E+00  0.00000000E+00
  0.00000000E+00  0.00000000E+00  0.00000000E+00
  0.00000000E+00  0.00000000E+00  0.00000000E+00
  0.00000000E+00  0.00000000E+00  0.00000000E+00
  0.00000000E+00  0.00000000E+00  0.00000000E+00
  0.00000000E+00  0.00000000E+00  0.00000000E+00
  0.00000000E+00  0.00000000E+00  0.00000000E+00
  0.00000000E+00  0.00000000E+00  0.00000000E+00
  0.00000000E+00  0.00000000E+00  0.00000000E+00
  0.00000000E+00  0.00000000E+00  0.00000000E+00
  0.00000000E+00  0.00000000E+00  0.00000000E+00
  0.00000000E+00  0.00000000E+00  0.00000000E+00
  0.00000000E+00  0.00000000E+00  0.00000000E+00
  0.00000000E+00  0.00000000E+00  0.00000000E+00
  0.00000000E+00  0.00000000E+00  0.00000000E+00
  0.00000000E+00  0.00000000E+00  0.00000000E+00
  0.00000000E+00  0.00000000E+00  0.00000000E+00
  0.00000000E+00  0.00000000E+00  0.00000000E+00
  0.00000000E+00  0.00000000E+00  0.00000000E+00
  0.00000000E+00  0.00000000E+00  0.00000000E+00
  0.00000000E+00  0.00000000E+00  0.00000000E+00
  0.00000000E+00  0.00000000E+00  0.00000000E+00
  0.00000000E+00  0.00000000E+00  0.00000000E+00
  0.00000000E+00  0.00000000E+00  0.00000000E+00
  0.00000000E+00  0.00000000E+00  0.00000000E+00
  0.00000000E+00  0.00000000E+00  0.00000000E+00
  0.00000000E+00  0.00000000E+00  0.00000000E+00
  0.00000000E+00  0.00000000E+00  0.00000000E+00
  0.00000000E+00  0.00000000E+00  0.00000000E+00
  0.00000000E+00  0.00000000E+00  0.00000000E+00
  0.00000000E+00  0.00000000E+00  0.00000000E+00
  0.00000000E+00  0.00000000E+00  0.00000000E+00
  0.00000000E+00  0.00000000E+00  0.00000000E+00
  0.00000000E+00  0.00000000E+00  0.00000000E+00
  0.00000000E+00  0.00000000E+00  0.00000000E+00
  0.00000000E+00  0.00000000E+00  0.00000000E+00
  0.00000000E+00  0.00000000E+00  0.00000000E+00
  0.00000000E+00  0.00000000E+00  0.00000000E+00
  0.00000000E+00  0.00000000E+00  0.00000000E+00
  0.00000000E+00  0.00000000E+00  0.00000000E+00
  0.00000000E+00  0.00000000E+00  0.00000000E+00
  0.00000000E+00  0.00000000E+00  0.00000000E+00
  0.00000000E+00  0.00000000E+00  0.00000000E+00
  0.00000000E+00  0.00000000E+00  0.00000000E+00
  0.00000000E+00  0.00000000E+00  0.00000000E+00
  0.00000000E+00  0.00000000E+00  0.00000000E+00
  0.00000000E+00  0.00000000E+00  0.00000000E+00
  0.00000000E+00  0.00000000E+00  0.00000000E+00
  0.00000000E+00  0.00000000E+00  0.00000000E+00
  0.00000000E+00  0.00000000E+00  0.00000000E+00
  0.00000000E+00  0.00000000E+00  0.00000000E+00
  0.00000000E+00  0.00000000E+00  0.00000000E+00
  0.00000000E+00  0.00000000E+00  0.00000000E+00
  0.00000000E+00  0.00000000E+00  0.00000000E+00
  0.00000000E+00  0.00000000E+00  0.00000000E+00
  0.00000000E+00  0.00000000E+00  0.00000000E+00
  0.00000000E+00  0.00000000E+00  0.00000000E+00
  0.00000000E+00  0.00000000E+00  0.00000000E+00
  0.00000000E+00  0.00000000E+00  0.00000000E+00
  0.00000000E+00  0.00000000E+00  0.00000000E+00
  0.00000000E+00  0.00000000E+00  0.00000000E+00
  0.00000000E+00  0.00000000E+00  0.00000000E+00
  0.00000000E+00  0.00000000E+00  0.00000000E+00
  0.00000000E+00  0.00000000E+00  0.00000000E+00
  0.00000000E+00  0.00000000E+00  0.00000000E+00
  0.00000000E+00  0.00000000E+00  0.00000000E+00
  0.00000000E+00  0.00000000E+00  0.00000000E+00
  0.00000000E+00  0.00000000E+00  0.00000000E+00
  0.00000000E+00  0.00000000E+00  0.00000000E+00
  0.00000000E+00  0.00000000E+00  0.00000000E+00
  0.00000000E+00  0.00000000E+00  0.00000000E+00
  0.00000000E+00  0.00000000E+00  0.00000000E+00
  0.00000000E+00  0.00000000E+00  0.00000000E+00
  0.00000000E+00  0.00000000E+00  0.00000000E+00
  0.00000000E+00  0.00000000E+00  0.00000000E+00
  0.00000000E+00  0.00000000E+00  0.00000000E+00
  0.00000000E+00  0.00000000E+00  0.00000000E+00
  0.00000000E+00  0.00000000E+00  0.00000000E+00
  0.00000000E+00  0.00000000E+00  0.00000000E+00
  0.00000000E+00  0.00000000E+00  0.00000000E+00
  0.00000000E+00  0.00000000E+00  0.00000000E+00
  0.00000000E+00  0.00000000E+00  0.00000000E+00
  0.00000000E+00  0.00000000E+00  0.00000000E+00
  0.00000000E+00  0.00000000E+00  0.00000000E+00
  0.00000000E+00  0.00000000E+00  0.00000000E+00
  0.00000000E+00  0.00000000E+00  0.00000000E+00
  0.00000000E+00  0.00000000E+00  0.00000000E+00
  0.00000000E+00  0.00000000E+00  0.00000000E+00
  0.00000000E+00  0.00000000E+00  0.00000000E+00
  0.00000000E+00  0.00000000E+00  0.00000000E+00
  0.00000000E+00  0.00000000E+00  0.00000000E+00
  0.00000000E+00  0.00000000E+00  0.00000000E+00
  0.00000000E+00  0.00000000E+00  0.00000000E+00
  0.00000000E+00  0.00000000E+00  0.00000000E+00
  0.00000000E+00  0.00000000E+00  0.00000000E+00
  0.00000000E+00  0.00000000E+00  0.00000000E+00
  0.00000000E+00  0.00000000E+00  0.00000000E+00
  0.00000000E+00  0.00000000E+00  0.00000000E+00
  0.00000000E+00  0.00000000E+00  0.00000000E+00
  0.00000000E+00  0.00000000E+00  0.00000000E+00
  0.00000000E+00  0.00000000E+00  0.00000000E+00
  0.00000000E+00  0.00000000E+00  0.00000000E+00
  0.00000000E+00  0.00000000E+00  0.00000000E+00
  0.00000000E+00  0.00000000E+00  0.00000000E+00
  0.00000000E+00  0.00000000E+00  0.00000000E+00
  0.00000000E+00  0.00000000E+00  0.00000000E+00
  0.00000000E+00  0.00000000E+00  0.00000000E+00
  0.00000000E+00  0.00000000E+00  0.00000000E+00
  0.00000000E+00  0.00000000E+00  0.00000000E+00
  0.00000000E+00  0.00000000E+00  0.00000000E+00
  0.00000000E+00  0.00000000E+00  0.00000000E+00
  0.00000000E+00  0.00000000E+00  0.00000000E+00
  0.00000000E+00  0.00000000E+00  0.00000000E+00
  0.00000000E+00  0.00000000E+00  0.00000000E+00
  0.00000000E+00  0.00000000E+00  0.00000000E+00
  0.00000000E+00  0.00000000E+00  0.00000000E+00
  0.00000000E+00  0.00000000E+00  0.00000000E+00
  0.00000000E+00  0.00000000E+00  0.00000000E+00
  0.00000000E+00  0.00000000E+00  0.00000000E+00
  0.00000000E+00  0.00000000E+00  0.00000000E+00
  0.00000000E+00  0.00000000E+00  0.00000000E+00
  0.00000000E+00  0.00000000E+00  0.00000000E+00
  0.00000000E+00  0.00000000E+00  0.00000000E+00
  0.00000000E+00  0.00000000E+00  0.00000000E+00
  0.00000000E+00  0.00000000E+00  0.00000000E+00
  0.00000000E+00  0.00000000E+00  0.00000000E+00
  0.00000000E+00  0.00000000E+00  0.00000000E+00
  0.00000000E+00  0.00000000E+00  0.00000000E+00
  0.00000000E+00  0.00000000E+00  0.00000000E+00
  0.00000000E+00  0.00000000E+00  0.00000000E+00
  0.00000000E+00  0.00000000E+00  0.00000000E+00
  0.00000000E+00  0.00000000E+00  0.00000000E+00
