This file is generated by VASPKIT code
   1.000
   17.3823941941652436    0.0000000000000000    0.0000000000000010
    0.0000000000000028   18.2475883808102353    0.0000000000000010
    0.0000000000000000    0.0000000000000000   40.0
   Cs   Pb   I 
   32   40  112
Cartesian
    8.6253352054809316    8.8084576155963354   15.8008450789161383    Cs1
    8.6253352054809316    8.8084576155963354   28.4415211420490550    Cs2
    8.6253352054809334   17.9322518060014531   15.8008450789161383    Cs3
    8.6253352054809334   17.9322518060014531   28.4415211420490550    Cs4
   17.3165323025635516    8.8084576155963354   15.8008450789161383    Cs5
   17.3165323025635516    8.8084576155963354   28.4415211420490550    Cs6
   17.3165323025635551   17.9322518060014531   15.8008450789161383    Cs7
   17.3165323025635551   17.9322518060014531   28.4415211420490586    Cs8
    0.0658618916016921    0.3153365748087817    9.4805070473496844    Cs9
    0.0658618916016921    0.3153365748087817   22.1211831104825940   Cs10
    0.0658618916016935    9.4391307652138998    9.4805070473496844   Cs11
    0.0658618916016935    9.4391307652138998   22.1211831104825940   Cs12
    8.7570589886843138    0.3153365748087817    9.4805070473496844   Cs13
    8.7570589886843138    0.3153365748087817   22.1211831104825940   Cs14
    8.7570589886843155    9.4391307652138998    9.4805070473496862   Cs15
    8.7570589886843155    9.4391307652138998   22.1211831104825940   Cs16
    4.2797366569396198    4.8772336700113401    9.4805070473496844   Cs17
    4.2797366569396198    4.8772336700113401   22.1211831104825940   Cs18
    4.2797366569396207   14.0010278604164586    9.4805070473496862   Cs19
    4.2797366569396207   14.0010278604164586   22.1211831104825940   Cs20
   12.9709337540222407    4.8772336700113401    9.4805070473496862   Cs21
   12.9709337540222407    4.8772336700113401   22.1211831104825940   Cs22
   12.9709337540222425   14.0010278604164586    9.4805070473496862   Cs23
   12.9709337540222425   14.0010278604164586   22.1211831104825940   Cs24
    4.4114604401430038    4.2465605203937775   15.8008450789161365   Cs25
    4.4114604401430038    4.2465605203937775   28.4415211420490550   Cs26
    4.4114604401430046   13.3703547107988943   15.8008450789161383   Cs27
    4.4114604401430046   13.3703547107988943   28.4415211420490550   Cs28
   13.1026575372256247    4.2465605203937775   15.8008450789161383   Cs29
   13.1026575372256247    4.2465605203937775   28.4415211420490550   Cs30
   13.1026575372256264   13.3703547107988943   15.8008450789161383   Cs31
   13.1026575372256264   13.3703547107988943   28.4415211420490550   Cs32
    4.3455985485413109    0.0000000000000000   12.6406760631329114    Pb1
    4.3455985485413109    0.0000000000000000   25.2813521262658227    Pb2
    4.3455985485413127    9.1237941904051176   12.6406760631329114    Pb3
    4.3455985485413127    9.1237941904051176   25.2813521262658227    Pb4
   13.0367956456239327    0.0000000000000000   12.6406760631329114    Pb5
   13.0367956456239327    0.0000000000000000   25.2813521262658227    Pb6
   13.0367956456239344    9.1237941904051176   12.6406760631329131    Pb7
   13.0367956456239344    9.1237941904051176   25.2813521262658227    Pb8
    0.0000000000000007    4.5618970952025588   12.6406760631329114    Pb9
    0.0000000000000007    4.5618970952025588   25.2813521262658227   Pb10
    0.0000000000000021   13.6856912856076764   12.6406760631329114   Pb11
    0.0000000000000021   13.6856912856076764   25.2813521262658227   Pb12
    8.6911970970826218    4.5618970952025588   12.6406760631329114   Pb13
    8.6911970970826218    4.5618970952025588   25.2813521262658227   Pb14
    8.6911970970826236   13.6856912856076764   12.6406760631329131   Pb15
    8.6911970970826236   13.6856912856076764   25.2813521262658227   Pb16
    4.3455985485413109    0.0000000000000000    6.3203380315664583   Pb17
    4.3455985485413109    0.0000000000000000   18.9610140946993688   Pb18
    4.3455985485413109    0.0000000000000000   31.6016901578322802   Pb19
    4.3455985485413127    9.1237941904051176    6.3203380315664592   Pb20
    4.3455985485413127    9.1237941904051176   18.9610140946993688   Pb21
    4.3455985485413127    9.1237941904051176   31.6016901578322802   Pb22
   13.0367956456239327    0.0000000000000000    6.3203380315664592   Pb23
   13.0367956456239327    0.0000000000000000   18.9610140946993688   Pb24
   13.0367956456239327    0.0000000000000000   31.6016901578322802   Pb25
   13.0367956456239344    9.1237941904051176    6.3203380315664592   Pb26
   13.0367956456239344    9.1237941904051176   18.9610140946993688   Pb27
   13.0367956456239344    9.1237941904051176   31.6016901578322802   Pb28
    0.0000000000000007    4.5618970952025588    6.3203380315664583   Pb29
    0.0000000000000007    4.5618970952025588   18.9610140946993688   Pb30
    0.0000000000000007    4.5618970952025588   31.6016901578322802   Pb31
    0.0000000000000021   13.6856912856076764    6.3203380315664592   Pb32
    0.0000000000000021   13.6856912856076764   18.9610140946993688   Pb33
    0.0000000000000021   13.6856912856076764   31.6016901578322802   Pb34
    8.6911970970826218    4.5618970952025588    6.3203380315664592   Pb35
    8.6911970970826218    4.5618970952025588   18.9610140946993688   Pb36
    8.6911970970826218    4.5618970952025588   31.6016901578322802   Pb37
    8.6911970970826236   13.6856912856076764    6.3203380315664592   Pb38
    8.6911970970826236   13.6856912856076764   18.9610140946993688   Pb39
    8.6911970970826236   13.6856912856076764   31.6016901578322802   Pb40
    0.4474141353607170    4.6270501095162411   15.8008450789161365     I1
    0.4474141353607170    4.6270501095162411   28.4415211420490550     I2
    0.4474141353607184   13.7508442999213578   15.8008450789161365     I3
    0.4474141353607184   13.7508442999213578   28.4415211420490550     I4
    9.1386112324433384    4.6270501095162411   15.8008450789161365     I5
    9.1386112324433384    4.6270501095162411   28.4415211420490550     I6
    9.1386112324433402   13.7508442999213578   15.8008450789161383     I7
    9.1386112324433402   13.7508442999213578   28.4415211420490550     I8
    8.2437829617219052    4.4967440808888757    9.4805070473496844     I9
    8.2437829617219052    4.4967440808888757   22.1211831104825940    I10
    8.2437829617219069   13.6205382712939933    9.4805070473496862    I11
    8.2437829617219069   13.6205382712939933   22.1211831104825940    I12
   16.9349800588045269    4.4967440808888757    9.4805070473496862    I13
   16.9349800588045269    4.4967440808888757   22.1211831104825940    I14
   16.9349800588045305   13.6205382712939933    9.4805070473496862    I15
   16.9349800588045305   13.6205382712939933   22.1211831104825940    I16
    4.7930126839020293    9.0586411760914345    9.4805070473496844    I17
    4.7930126839020293    9.0586411760914345   22.1211831104825940    I18
    4.7930126839020302   18.1824353664965521    9.4805070473496862    I19
    4.7930126839020302   18.1824353664965521   22.1211831104825940    I20
   13.4842097809846511    9.0586411760914345    9.4805070473496862    I21
   13.4842097809846511    9.0586411760914345   22.1211831104825940    I22
   13.4842097809846528   18.1824353664965521    9.4805070473496862    I23
   13.4842097809846528   18.1824353664965521   22.1211831104825940    I24
    3.8981844131805947    0.0651530143136811   15.8008450789161365    I25
    3.8981844131805947    0.0651530143136811   28.4415211420490550    I26
    3.8981844131805961    9.1889472047187990   15.8008450789161365    I27
    3.8981844131805961    9.1889472047187990   28.4415211420490550    I28
   12.5893815102632161    0.0651530143136811   15.8008450789161365    I29
   12.5893815102632161    0.0651530143136811   28.4415211420490550    I30
   12.5893815102632178    9.1889472047187990   15.8008450789161383    I31
   12.5893815102632178    9.1889472047187990   28.4415211420490550    I32
    6.9236161962663463    1.8605606064841731   12.9683855900696319    I33
    6.9236161962663463    1.8605606064841731   25.6090616532025450    I34
    6.9236161962663481   10.9843547968892903   12.9683855900696337    I35
    6.9236161962663481   10.9843547968892903   25.6090616532025450    I36
   15.6148132933489681    1.8605606064841731   12.9683855900696337    I37
   15.6148132933489681    1.8605606064841731   25.6090616532025450    I38
   15.6148132933489698   10.9843547968892903   12.9683855900696337    I39
   15.6148132933489698   10.9843547968892903   25.6090616532025450    I40
    1.7675809008162764    7.2632335839209441   12.3129665361961926    I41
    1.7675809008162764    7.2632335839209441   24.9536425993291040    I42
    1.7675809008162777   16.3870277743260608   12.3129665361961944    I43
    1.7675809008162777   16.3870277743260608   24.9536425993291040    I44
   10.4587779978988991    7.2632335839209441   12.3129665361961944    I45
   10.4587779978988991    7.2632335839209441   24.9536425993291040    I46
   10.4587779978988991   16.3870277743260608   12.3129665361961944    I47
   10.4587779978988991   16.3870277743260608   24.9536425993291040    I48
    2.5780176477250358    2.7013364887183857   12.3129665361961926    I49
    2.5780176477250358    2.7013364887183857   24.9536425993291040    I50
    2.5780176477250372   11.8251306791235038   12.3129665361961926    I51
    2.5780176477250372   11.8251306791235038   24.9536425993291040    I52
   11.2692147448076572    2.7013364887183857   12.3129665361961926    I53
   11.2692147448076572    2.7013364887183857   24.9536425993291040    I54
   11.2692147448076589   11.8251306791235038   12.3129665361961944    I55
   11.2692147448076589   11.8251306791235038   24.9536425993291040    I56
    6.1131794493575873    6.4224577016867324   12.9683855900696319    I57
    6.1131794493575873    6.4224577016867324   25.6090616532025450    I58
    6.1131794493575891   15.5462518920918491   12.9683855900696337    I59
    6.1131794493575891   15.5462518920918491   25.6090616532025450    I60
   14.8043765464402099    6.4224577016867324   12.9683855900696337    I61
   14.8043765464402099    6.4224577016867324   25.6090616532025450    I62
   14.8043765464402099   15.5462518920918491   12.9683855900696337    I63
   14.8043765464402099   15.5462518920918491   25.6090616532025450    I64
    1.7675809008162764    7.2632335839209441    6.6480475585031762    I65
    1.7675809008162764    7.2632335839209441   19.2887236216360876    I66
    1.7675809008162764    7.2632335839209441   31.9293996847689989    I67
    1.7675809008162777   16.3870277743260608    6.6480475585031762    I68
    1.7675809008162777   16.3870277743260608   19.2887236216360876    I69
    1.7675809008162777   16.3870277743260608   31.9293996847689989    I70
   10.4587779978988991    7.2632335839209441    6.6480475585031762    I71
   10.4587779978988991    7.2632335839209441   19.2887236216360876    I72
   10.4587779978988991    7.2632335839209441   31.9293996847689989    I73
   10.4587779978988991   16.3870277743260608    6.6480475585031771    I74
   10.4587779978988991   16.3870277743260608   19.2887236216360876    I75
   10.4587779978988991   16.3870277743260608   31.9293996847689989    I76
    6.9236161962663463    1.8605606064841731    5.9926285046297361    I77
    6.9236161962663463    1.8605606064841731   18.6333045677626465    I78
    6.9236161962663463    1.8605606064841731   31.2739806308955579    I79
    6.9236161962663481   10.9843547968892903    5.9926285046297361    I80
    6.9236161962663481   10.9843547968892903   18.6333045677626465    I81
    6.9236161962663481   10.9843547968892903   31.2739806308955579    I82
   15.6148132933489681    1.8605606064841731    5.9926285046297361    I83
   15.6148132933489681    1.8605606064841731   18.6333045677626465    I84
   15.6148132933489681    1.8605606064841731   31.2739806308955579    I85
   15.6148132933489698   10.9843547968892903    5.9926285046297370    I86
   15.6148132933489698   10.9843547968892903   18.6333045677626465    I87
   15.6148132933489698   10.9843547968892903   31.2739806308955579    I88
    6.1131794493575873    6.4224577016867324    5.9926285046297361    I89
    6.1131794493575873    6.4224577016867324   18.6333045677626465    I90
    6.1131794493575873    6.4224577016867324   31.2739806308955579    I91
    6.1131794493575891   15.5462518920918491    5.9926285046297361    I92
    6.1131794493575891   15.5462518920918491   18.6333045677626465    I93
    6.1131794493575891   15.5462518920918491   31.2739806308955579    I94
   14.8043765464402099    6.4224577016867324    5.9926285046297361    I95
   14.8043765464402099    6.4224577016867324   18.6333045677626465    I96
   14.8043765464402099    6.4224577016867324   31.2739806308955579    I97
   14.8043765464402099   15.5462518920918491    5.9926285046297370    I98
   14.8043765464402099   15.5462518920918491   18.6333045677626465    I99
   14.8043765464402099   15.5462518920918491   31.2739806308955579   I100
    2.5780176477250358    2.7013364887183857    6.6480475585031753   I101
    2.5780176477250358    2.7013364887183857   19.2887236216360876   I102
    2.5780176477250358    2.7013364887183857   31.9293996847689989   I103
    2.5780176477250372   11.8251306791235038    6.6480475585031762   I104
    2.5780176477250372   11.8251306791235038   19.2887236216360876   I105
    2.5780176477250372   11.8251306791235038   31.9293996847689989   I106
   11.2692147448076572    2.7013364887183857    6.6480475585031762   I107
   11.2692147448076572    2.7013364887183857   19.2887236216360876   I108
   11.2692147448076572    2.7013364887183857   31.9293996847689989   I109
   11.2692147448076589   11.8251306791235038    6.6480475585031762   I110
   11.2692147448076589   11.8251306791235038   19.2887236216360876   I111
   11.2692147448076589   11.8251306791235038   31.9293996847689989   I112
