This file is generated by VASPKIT code  
   1.00000000000000     
    12.6406764983999995    0.0000000000000000    0.0000000000000000
     0.0000000000000000   25.2016296386999983    0.0000000000000000
     0.0000000000000000    1.8348134680999999   55.7578896671000024
   Cs   Pb   I 
    24    32   104
Direct
  0.2500000000316405  0.5035091265299603  0.2425119732647883
  0.2500000000316405  0.4992253646201899  0.4835216136234717
  0.2500000000316405  0.0035090967164045  0.2425119732647883
  0.2500000000316405 -0.0007746353659260  0.4835216136234717
  0.2500000000316405  0.2507192529412707  0.3537528666046605
  0.2500000000316405  0.7507192827270449  0.3537528666046605
  0.7500000595854175  0.0204677399140296  0.2459882019593086
  0.7500000595854175  0.0161840059668798  0.4869978571949450
  0.7500000595854175  0.5204677715647582  0.2459882019593086
  0.7500000595854175  0.5161839798832470  0.4869978571949450
  0.7500000595854175  0.2689738832721416  0.3757569340625202
  0.7500000595854175  0.7689739130579151  0.3757569340625202
  0.7500000595854175  0.0322165705279561  0.3693663078869303
  0.7500000595854175  0.5322165947188524  0.3693663078869303
  0.7500000595854175  0.2758441067690618  0.2504056175127112
  0.7500000595854175  0.2748170654032812  0.4858639280628427
  0.7500000595854175  0.7758441365548355  0.2504056175127112
  0.7500000595854175  0.7748170951890551  0.4858639280628427
  0.2500000000316405  0.4874765117062920  0.3601435523846891
  0.2500000000316405  0.9874765414920659  0.3601435523846891
  0.2500000000316405  0.2448760261173127  0.2436458875006177
  0.2500000000316405  0.2438489996566297  0.4791042129663486
  0.2500000000316405  0.7448760410230925  0.2436458875006177
  0.2500000000316405  0.7438489996427388  0.4791042129663486
  0.9966920828387915  0.3842329104204807  0.3078496347550816
  0.0025389120570765  0.3823712885804910  0.5446532481082413
  0.9966920828387915  0.8842329104065967  0.3078496347550816
  0.0025389120570765  0.8823713183662654  0.5446532481082413
  0.9974610879429233  0.1373218178451930  0.1848565823708188
  0.0033079171612083  0.1354602108985348  0.4216602255165378
  0.9974610879429233  0.6373218774306246  0.1848565823708188
  0.0033079171612083  0.6354601661653150  0.4216602255165378
 -0.0006098731758336  0.1333315994287847  0.3067595145591512
  0.0006009182538636  0.1342697478769923  0.5441131996601207
 -0.0006098731758336  0.6333316143345644  0.3067595145591512
  0.0006009182538636  0.6342697777024423  0.5441131996601207
 -0.0006009182538635  0.3854233585090154  0.1853966308189392
  0.0006098731758336  0.3863615218902380  0.4227503457124682
 -0.0006009182538635  0.8854234181341244  0.1853966308189392
  0.0006098731758336  0.8863614622770239  0.4227503457124682
  0.5033079171453847  0.3842329104204807  0.3078496347550816
  0.4974610879270998  0.3823712885804910  0.5446532481082413
  0.5033079171453847  0.8842329104065967  0.3078496347550816
  0.4974610879270998  0.8823713183662654  0.5446532481082413
  0.5025389120412529  0.1373218178451930  0.1848565823708188
  0.4966920828229681  0.1354602108985348  0.4216602255165378
  0.5025389120412529  0.6373218774306246  0.1848565823708188
  0.4966920828229681  0.6354601661653150  0.4216602255165378
  0.5006098731600104  0.1333315994287847  0.3067595145591512
  0.4993990817303130  0.1342697478769923  0.5441131996601207
  0.5006098731600104  0.6333316143345644  0.3067595145591512
  0.4993990817303130  0.6342697777024423  0.5441131996601207
  0.5006009182380333  0.3854233585090154  0.1853966308189392
  0.4993901268083425  0.3863615218902381  0.4227503457124682
  0.5006009182380333  0.8854234181341244  0.1853966308189392
  0.4993901268083425  0.8863614622770239  0.4227503457124682
  0.2500000000316405  0.1179565410571475  0.3178533473009929
  0.2500000000316405  0.1311815171222213  0.5327670319523410
  0.2500000000316405  0.6179565559629275  0.3178533473009929
  0.2500000000316405  0.6311814724286783  0.5327670319523410
  0.2500000000316405  0.3812101563733696  0.1986138304627276
  0.2500000000316405  0.3762048228002691  0.4337967179741357
  0.2500000000316405  0.8812102159588091  0.1986138304627276
  0.2500000000316405  0.8762048525860430  0.4337967179741357
  0.7500000595854175  0.3885116041980378  0.1967427836111198
  0.7500000595854175  0.4017365802604609  0.4116565129899462
  0.7500000595854175  0.8885116041841464  0.1967427836111198
  0.7500000595854175  0.9017365206472540  0.4116565129899462
  0.7500000595854175  0.1434882836387594  0.2957131422974837
  0.7500000595854175  0.1384829798387990  0.5308960149126051
  0.7500000595854175  0.6434882836248682  0.2957131422974837
  0.7500000595854175  0.6384829798645983  0.5308960149126051
  0.7500000595854175  0.1425306050822140  0.1986717326768531
  0.7500000595854175  0.1191844593439187  0.4280786599675662
  0.7500000595854175  0.6425305827284968  0.1986717326768531
  0.7500000595854175  0.6191844965895313  0.4280786599675662
  0.7500000595854175  0.3571160574574192  0.3147506513273020
  0.7500000595854175  0.3853550789390472  0.5353124264903690
  0.7500000595854175  0.8571160276438771  0.3147506513273020
  0.7500000595854175  0.8853550789251633  0.5353124264903690
  0.2500000000316405  0.4005086694229986  0.3014311704921741
  0.2500000000316405  0.3771624938704723  0.5308381126984871
  0.2500000000316405  0.9005086396094498  0.3014311704921741
  0.2500000000316405  0.8771624938962650  0.5308381126984871
  0.2500000000316405  0.1343380126066501  0.1941974039886909
  0.2500000000316405  0.1625770638496589  0.4147591791324312
  0.2500000000316405  0.6343379976730882  0.1941974039886909
  0.2500000000316405  0.6625771085551041  0.4147591791324312
  0.0042839265421148  0.3839449430758202  0.1345378008740546
  0.0348927731312742  0.3618978784443156  0.3654492873411431
  0.0087200294613579  0.3737627957087295  0.5954828761430055
  0.0042839265421148  0.8839449430619295  0.1345378008740546
  0.0348927731312742  0.8618978784304246  0.3654492873411431
  0.0087200294613579  0.8737627361351995  0.5954828761430055
  0.0323999040532388  0.1172357657576888  0.2530028545673506
  0.0318506881457686  0.1161033410971681  0.4759468340473122
  0.0323999040532388  0.6172357583236496  0.2530028545673506
  0.0318506881457686  0.6161033411229606  0.4759468340473122
  0.9912799891768885  0.1459303255706092  0.1340269841286205
  0.9651072455069722  0.1577952428480260  0.3640605133453573
  0.9957160920961317  0.1357481782438133  0.5949720370434856
  0.9912799891768885  0.6459303404763960  0.1340269841286205
  0.9651072455069722  0.6577951981544828  0.3640605133453573
  0.9957160920961317  0.6357481335502770  0.5949720370434856
  0.9681493304924779  0.4035897653020059  0.2535629815354679
  0.9676001145850081  0.4024573778892157  0.4765069758923826
  0.9681493304924779  0.9035897950877800  0.2535629815354679
  0.9676001145850081  0.9024573779150082  0.4765069758923826
  0.9678153600571354  0.5071398787087649  0.3192701129718346
  0.0012499964827087  0.5079161012113026  0.5342307781031236
  0.9678153600571354  0.0071398190836563  0.3192701129718346
  0.0012499964827087  0.0079161608245092  0.5342307781031236
  0.9954529816044829  0.2613088925375344  0.1998628201167252
  0.9642386345293449  0.2611255840781617  0.4327230341428007
  0.9954529816044829  0.7613088925236506  0.1998628201167252
  0.9642386345293449  0.7611256436635934  0.4327230341428007
  0.9987500221555378  0.0117770233349626  0.1952790672722163
  0.0321846585811114  0.0125532416723343  0.4102396876953390
  0.9987500221555378  0.5117770349869893  0.1952790672722163
  0.0321846585811114  0.5125532575304401  0.4102396876953390
  0.0357613841089014  0.2585675521485945  0.2967867963169396
  0.0045470370337636  0.2583842139013235  0.5296469954660553
  0.0357613841089014  0.7585675521347035  0.2967867963169396
  0.0045470370337636  0.7583841840877743  0.5296469954660553
  0.5087200108547590  0.1459303255706092  0.1340269841286205
  0.5348927545246753  0.1577952428480260  0.3640605133453573
  0.5042839079355159  0.1357481782438133  0.5949720370434856
  0.5087200108547590  0.6459303404763960  0.1340269841286205
  0.5348927545246753  0.6577951981544828  0.3640605133453573
  0.5042839079355159  0.6357481335502770  0.5949720370434856
  0.5318506695391697  0.4035897653020059  0.2535629815354679
  0.5323998854466395  0.4024573778892157  0.4765069758923825
  0.5318506695391697  0.9035897950877800  0.2535629815354679
  0.5323998854466395  0.9024573779150082  0.4765069758923825
  0.4957160622875993  0.3839449430758202  0.1345378008740546
  0.4651072156984396  0.3618978784443156  0.3654492873411431
  0.4912799593683561  0.3737627957087295  0.5954828761430055
  0.4957160622875993  0.8839449430619295  0.1345378008740546
  0.4651072156984396  0.8618978784304246  0.3654492873411431
  0.4912799593683561  0.8737627361351995  0.5954828761430055
  0.4676000847764750  0.1172357657576888  0.2530028545673507
  0.4681493006839453  0.1161033410971681  0.4759468340473122
  0.4676000847764750  0.6172357583236496  0.2530028545673507
  0.4681493006839453  0.6161033411229606  0.4759468340473122
  0.5012499666741762  0.0117770233349626  0.1952790672722163
  0.4678153302486026  0.0125532416723343  0.4102396876953390
  0.5012499666741762  0.5117770349869893  0.1952790672722163
  0.4678153302486026  0.5125532575304401  0.4102396876953390
  0.4642386047208127  0.2585675521485946  0.2967867963169396
  0.4954529517959504  0.2583842139013235  0.5296469954660553
  0.4642386047208127  0.7585675521347035  0.2967867963169396
  0.4954529517959504  0.7583841840877743  0.5296469954660553
  0.5321846399745122  0.5071398787087649  0.3192701129718346
  0.4987500035489388  0.5079161012113026  0.5342307781031236
  0.5321846399745122  0.0071398190836563  0.3192701129718346
  0.4987500035489388  0.0079161608245092  0.5342307781031236
  0.5045470184271647  0.2613088925375344  0.1998628201167252
  0.5357613655023027  0.2611255840781618  0.4327230341428007
  0.5045470184271647  0.7613088925236506  0.1998628201167252
  0.5357613655023027  0.7611256436635934  0.4327230341428007
 
  0.00000000E+00  0.00000000E+00  0.00000000E+00
  0.00000000E+00  0.00000000E+00  0.00000000E+00
  0.00000000E+00  0.00000000E+00  0.00000000E+00
  0.00000000E+00  0.00000000E+00  0.00000000E+00
  0.00000000E+00  0.00000000E+00  0.00000000E+00
  0.00000000E+00  0.00000000E+00  0.00000000E+00
  0.00000000E+00  0.00000000E+00  0.00000000E+00
  0.00000000E+00  0.00000000E+00  0.00000000E+00
  0.00000000E+00  0.00000000E+00  0.00000000E+00
  0.00000000E+00  0.00000000E+00  0.00000000E+00
  0.00000000E+00  0.00000000E+00  0.00000000E+00
  0.00000000E+00  0.00000000E+00  0.00000000E+00
  0.00000000E+00  0.00000000E+00  0.00000000E+00
  0.00000000E+00  0.00000000E+00  0.00000000E+00
  0.00000000E+00  0.00000000E+00  0.00000000E+00
  0.00000000E+00  0.00000000E+00  0.00000000E+00
  0.00000000E+00  0.00000000E+00  0.00000000E+00
  0.00000000E+00  0.00000000E+00  0.00000000E+00
  0.00000000E+00  0.00000000E+00  0.00000000E+00
  0.00000000E+00  0.00000000E+00  0.00000000E+00
  0.00000000E+00  0.00000000E+00  0.00000000E+00
  0.00000000E+00  0.00000000E+00  0.00000000E+00
  0.00000000E+00  0.00000000E+00  0.00000000E+00
  0.00000000E+00  0.00000000E+00  0.00000000E+00
  0.00000000E+00  0.00000000E+00  0.00000000E+00
  0.00000000E+00  0.00000000E+00  0.00000000E+00
  0.00000000E+00  0.00000000E+00  0.00000000E+00
  0.00000000E+00  0.00000000E+00  0.00000000E+00
  0.00000000E+00  0.00000000E+00  0.00000000E+00
  0.00000000E+00  0.00000000E+00  0.00000000E+00
  0.00000000E+00  0.00000000E+00  0.00000000E+00
  0.00000000E+00  0.00000000E+00  0.00000000E+00
  0.00000000E+00  0.00000000E+00  0.00000000E+00
  0.00000000E+00  0.00000000E+00  0.00000000E+00
  0.00000000E+00  0.00000000E+00  0.00000000E+00
  0.00000000E+00  0.00000000E+00  0.00000000E+00
  0.00000000E+00  0.00000000E+00  0.00000000E+00
  0.00000000E+00  0.00000000E+00  0.00000000E+00
  0.00000000E+00  0.00000000E+00  0.00000000E+00
  0.00000000E+00  0.00000000E+00  0.00000000E+00
  0.00000000E+00  0.00000000E+00  0.00000000E+00
  0.00000000E+00  0.00000000E+00  0.00000000E+00
  0.00000000E+00  0.00000000E+00  0.00000000E+00
  0.00000000E+00  0.00000000E+00  0.00000000E+00
  0.00000000E+00  0.00000000E+00  0.00000000E+00
  0.00000000E+00  0.00000000E+00  0.00000000E+00
  0.00000000E+00  0.00000000E+00  0.00000000E+00
  0.00000000E+00  0.00000000E+00  0.00000000E+00
  0.00000000E+00  0.00000000E+00  0.00000000E+00
  0.00000000E+00  0.00000000E+00  0.00000000E+00
  0.00000000E+00  0.00000000E+00  0.00000000E+00
  0.00000000E+00  0.00000000E+00  0.00000000E+00
  0.00000000E+00  0.00000000E+00  0.00000000E+00
  0.00000000E+00  0.00000000E+00  0.00000000E+00
  0.00000000E+00  0.00000000E+00  0.00000000E+00
  0.00000000E+00  0.00000000E+00  0.00000000E+00
  0.00000000E+00  0.00000000E+00  0.00000000E+00
  0.00000000E+00  0.00000000E+00  0.00000000E+00
  0.00000000E+00  0.00000000E+00  0.00000000E+00
  0.00000000E+00  0.00000000E+00  0.00000000E+00
  0.00000000E+00  0.00000000E+00  0.00000000E+00
  0.00000000E+00  0.00000000E+00  0.00000000E+00
  0.00000000E+00  0.00000000E+00  0.00000000E+00
  0.00000000E+00  0.00000000E+00  0.00000000E+00
  0.00000000E+00  0.00000000E+00  0.00000000E+00
  0.00000000E+00  0.00000000E+00  0.00000000E+00
  0.00000000E+00  0.00000000E+00  0.00000000E+00
  0.00000000E+00  0.00000000E+00  0.00000000E+00
  0.00000000E+00  0.00000000E+00  0.00000000E+00
  0.00000000E+00  0.00000000E+00  0.00000000E+00
  0.00000000E+00  0.00000000E+00  0.00000000E+00
  0.00000000E+00  0.00000000E+00  0.00000000E+00
  0.00000000E+00  0.00000000E+00  0.00000000E+00
  0.00000000E+00  0.00000000E+00  0.00000000E+00
  0.00000000E+00  0.00000000E+00  0.00000000E+00
  0.00000000E+00  0.00000000E+00  0.00000000E+00
  0.00000000E+00  0.00000000E+00  0.00000000E+00
  0.00000000E+00  0.00000000E+00  0.00000000E+00
  0.00000000E+00  0.00000000E+00  0.00000000E+00
  0.00000000E+00  0.00000000E+00  0.00000000E+00
  0.00000000E+00  0.00000000E+00  0.00000000E+00
  0.00000000E+00  0.00000000E+00  0.00000000E+00
  0.00000000E+00  0.00000000E+00  0.00000000E+00
  0.00000000E+00  0.00000000E+00  0.00000000E+00
  0.00000000E+00  0.00000000E+00  0.00000000E+00
  0.00000000E+00  0.00000000E+00  0.00000000E+00
  0.00000000E+00  0.00000000E+00  0.00000000E+00
  0.00000000E+00  0.00000000E+00  0.00000000E+00
  0.00000000E+00  0.00000000E+00  0.00000000E+00
  0.00000000E+00  0.00000000E+00  0.00000000E+00
  0.00000000E+00  0.00000000E+00  0.00000000E+00
  0.00000000E+00  0.00000000E+00  0.00000000E+00
  0.00000000E+00  0.00000000E+00  0.00000000E+00
  0.00000000E+00  0.00000000E+00  0.00000000E+00
  0.00000000E+00  0.00000000E+00  0.00000000E+00
  0.00000000E+00  0.00000000E+00  0.00000000E+00
  0.00000000E+00  0.00000000E+00  0.00000000E+00
  0.00000000E+00  0.00000000E+00  0.00000000E+00
  0.00000000E+00  0.00000000E+00  0.00000000E+00
  0.00000000E+00  0.00000000E+00  0.00000000E+00
  0.00000000E+00  0.00000000E+00  0.00000000E+00
  0.00000000E+00  0.00000000E+00  0.00000000E+00
  0.00000000E+00  0.00000000E+00  0.00000000E+00
  0.00000000E+00  0.00000000E+00  0.00000000E+00
  0.00000000E+00  0.00000000E+00  0.00000000E+00
  0.00000000E+00  0.00000000E+00  0.00000000E+00
  0.00000000E+00  0.00000000E+00  0.00000000E+00
  0.00000000E+00  0.00000000E+00  0.00000000E+00
  0.00000000E+00  0.00000000E+00  0.00000000E+00
  0.00000000E+00  0.00000000E+00  0.00000000E+00
  0.00000000E+00  0.00000000E+00  0.00000000E+00
  0.00000000E+00  0.00000000E+00  0.00000000E+00
  0.00000000E+00  0.00000000E+00  0.00000000E+00
  0.00000000E+00  0.00000000E+00  0.00000000E+00
  0.00000000E+00  0.00000000E+00  0.00000000E+00
  0.00000000E+00  0.00000000E+00  0.00000000E+00
  0.00000000E+00  0.00000000E+00  0.00000000E+00
  0.00000000E+00  0.00000000E+00  0.00000000E+00
  0.00000000E+00  0.00000000E+00  0.00000000E+00
  0.00000000E+00  0.00000000E+00  0.00000000E+00
  0.00000000E+00  0.00000000E+00  0.00000000E+00
  0.00000000E+00  0.00000000E+00  0.00000000E+00
  0.00000000E+00  0.00000000E+00  0.00000000E+00
  0.00000000E+00  0.00000000E+00  0.00000000E+00
  0.00000000E+00  0.00000000E+00  0.00000000E+00
  0.00000000E+00  0.00000000E+00  0.00000000E+00
  0.00000000E+00  0.00000000E+00  0.00000000E+00
  0.00000000E+00  0.00000000E+00  0.00000000E+00
  0.00000000E+00  0.00000000E+00  0.00000000E+00
  0.00000000E+00  0.00000000E+00  0.00000000E+00
  0.00000000E+00  0.00000000E+00  0.00000000E+00
  0.00000000E+00  0.00000000E+00  0.00000000E+00
  0.00000000E+00  0.00000000E+00  0.00000000E+00
  0.00000000E+00  0.00000000E+00  0.00000000E+00
  0.00000000E+00  0.00000000E+00  0.00000000E+00
  0.00000000E+00  0.00000000E+00  0.00000000E+00
  0.00000000E+00  0.00000000E+00  0.00000000E+00
  0.00000000E+00  0.00000000E+00  0.00000000E+00
  0.00000000E+00  0.00000000E+00  0.00000000E+00
  0.00000000E+00  0.00000000E+00  0.00000000E+00
  0.00000000E+00  0.00000000E+00  0.00000000E+00
  0.00000000E+00  0.00000000E+00  0.00000000E+00
  0.00000000E+00  0.00000000E+00  0.00000000E+00
  0.00000000E+00  0.00000000E+00  0.00000000E+00
  0.00000000E+00  0.00000000E+00  0.00000000E+00
  0.00000000E+00  0.00000000E+00  0.00000000E+00
  0.00000000E+00  0.00000000E+00  0.00000000E+00
  0.00000000E+00  0.00000000E+00  0.00000000E+00
  0.00000000E+00  0.00000000E+00  0.00000000E+00
  0.00000000E+00  0.00000000E+00  0.00000000E+00
  0.00000000E+00  0.00000000E+00  0.00000000E+00
  0.00000000E+00  0.00000000E+00  0.00000000E+00
  0.00000000E+00  0.00000000E+00  0.00000000E+00
  0.00000000E+00  0.00000000E+00  0.00000000E+00
  0.00000000E+00  0.00000000E+00  0.00000000E+00
  0.00000000E+00  0.00000000E+00  0.00000000E+00
  0.00000000E+00  0.00000000E+00  0.00000000E+00
  0.00000000E+00  0.00000000E+00  0.00000000E+00
  0.00000000E+00  0.00000000E+00  0.00000000E+00
  0.00000000E+00  0.00000000E+00  0.00000000E+00
