This file is generated by VASPKIT code
   1.00000000000000
    17.3823947909999994    0.0000000000000000    0.0000000000000000
     0.0000000000000000   18.2475891109999999    0.0000000000000000
     0.0000000000000000    0.0000000000000000   40.0000000000000000
   Cs   Pb   I 
    28    31    96
Direct
  0.4937374914786563  0.4633017517313386  0.3949897500000000    
  0.5164225130042382  0.0063235750924729  0.0918912500000000    
  0.4949697727757701  0.9686030243494120  0.3949715000000000    
  0.4938531257180213  0.0038202306932688  0.7017670000000000    
  0.9846169187724094  0.4649956741345653  0.3956207500000000    
  0.9764126407247243  0.9679492393519842  0.3950502500000000    
  0.0047145402566987  0.0329353097740299  0.2365250000000000    
  0.0097690796948141  0.0301924816833958  0.5578675000000000    
  0.0133422352206659  0.5052535950868277  0.2253270000000000    
  0.0157043953541626  0.4983787142882253  0.5656152500000000   
  0.5272196443694270  0.0417304442448764  0.2357757500000000   
  0.5351736692125163  0.0501507346769630  0.5558132500000000   
  0.5300552720601248  0.5322220892263272  0.2306247500000000   
  0.5308629858515104  0.5205783592679450  0.5559887500000000   
  0.2611406572327000  0.2739287896934715  0.2324325000000000   
  0.2570365046773261  0.2848825654927911  0.5563312500000001   
  0.2511915102895215  0.7732911955746414  0.2368587500000000   
  0.2273282851708071  0.7677490935805190  0.5532942500000000   
  0.7217262149917074  0.2868340561682652  0.2285027500000000   
  0.7257970004531351  0.2886879997108457  0.5600152500000001   
  0.7282903277835235  0.7880728743136373  0.2369720000000000   
  0.7541423467603717  0.7748031761344935  0.5546680000000000   
  0.2744155829707504  0.2146963073405867  0.3962420000000000   
  0.2672606424981986  0.7086870447013979  0.3939887500000001   
  0.7563296172980128  0.2202005961202729  0.3963022500000000   
  0.7434338107825572  0.7493702273116687  0.0874465000000000   
  0.7593694746154498  0.7164212170976255  0.3948292500000000   
  0.7493748793891378  0.7189152451976207  0.7016635000000000   
  0.2462088826918072 -0.0005913109909679  0.3185637500000000   
  0.2542802676584312 -0.0045984156860162  0.6218122500000001   
  0.2491779787582895  0.4979523565950158  0.3170987500000000   
  0.2577395148290876  0.4979326279613968  0.6296155000000000   
  0.7497873657056786  0.0025345814024341  0.3150697500000000   
  0.7508021855974195  0.5005126948246746  0.3148450000000000   
  0.7472549183341121  0.4955142262902743  0.6458137500000001   
  0.0051684477933107  0.2516814671825059  0.3179007500000000   
 -0.0022367458838371  0.2422078869222079  0.6266717500000001   
  0.0020670339404904  0.7484446255843797  0.3171090000000000   
 -0.0013087954953007  0.7447740036960545  0.6269497500000001   
  0.5019642060205466  0.2511964716060402  0.3141365000000000   
  0.5043407485221235  0.2510161738154670  0.6457552500000001   
  0.4981827938048931  0.7494748986733691  0.3138517500000000   
  0.4754517487014543  0.7275739232859362  0.6530262500000000   
  0.2510108677464338  0.0022841373589936  0.1691250000000000   
  0.2482379471805658 -0.0025789708280768  0.4739900000000000   
  0.2641943216234939  0.5017649150418773  0.1644490000000000   
  0.2505546590309289  0.4985146226531558  0.4742832500000000   
  0.7582125569270763  0.0063898852221366  0.1507360000000000   
  0.7502326438214425 -0.0007540722183242  0.4763945000000000   
  0.7465208422672973  0.5109074926714574  0.1437387500000000   
  0.7516380888302424  0.5013703423694983  0.4749847500000000   
 -0.0064513550260671  0.2554611445733359  0.1649837500000000   
  0.0062822183774436  0.2483714408753271  0.4743207500000000   
 -0.0008986103576526  0.7467676917267692  0.1683582500000000   
  0.0037503463006003  0.7495466889790381  0.4714447500000001   
  0.5010719239048493  0.2565648520207958  0.1444055000000000   
  0.5025245430809523  0.2491797668361034  0.4760292500000001   
  0.4963240165542044  0.7612627572606897  0.1491005000000000   
  0.5004086090889892  0.7514346096128511  0.4719892500000000   
  0.0496456334340543  0.2572498740214537  0.3954962500000000   
  0.0458118693985887  0.7647514373056402  0.3947380000000000   
  0.5084477775511134  0.2265537641631742  0.0726217500000000   
  0.5305638325954416  0.2504835007077555  0.3948610000000000   
  0.5077948180402710  0.2201468903954213  0.7179972500000000   
  0.5259384630208404  0.7836191352741601  0.0759570000000000   
  0.5362937680386045  0.7552679927285326  0.3955825000000000   
  0.5405630301795394  0.7849864391874731  0.7175980000000001   
  0.4856436700178270  0.2543831939531006  0.2356580000000000   
  0.4828350811791202  0.2594814016907968  0.5537670000000000   
  0.4732213310595726  0.7438927913944082  0.2368660000000000   
  0.4530877416314230  0.7307255725065630  0.5546217500000000   
  0.9483089182012355  0.2506890073079528  0.2384915000000000   
  0.9512820413307803  0.2474080259336019  0.5521200000000001   
  0.9477272952360710  0.7200118284162739  0.2397772500000000   
  0.9734119034484655  0.7193777720524650  0.5524300000000001   
  0.3055246451282836  0.4908029189785498  0.2382572500000000   
  0.3017472599756925  0.5121317639910332  0.5553430000000000   
  0.3048860679855215  0.9855581408920951  0.2408250000000000   
  0.3125576231195151  0.9682818860355037  0.5511867500000001   
  0.7660216074999168  0.4990040023704257  0.2364180000000000   
  0.7632918340382896  0.5033453978017951  0.5545552500000001   
  0.7729815230613009  0.0020336933155531  0.2358167500000000   
  0.7721692069121295 -0.0082410886767145  0.5515910000000001   
  0.2011270622969709  0.0107767661143496  0.3963967500000000   
  0.2112838906352280  0.4966201258081364  0.3959732500000000   
  0.7345800249923689 -0.0234820061649513  0.0774110000000000   
  0.7195429715171288  0.0065104490942524  0.3934027500000000   
  0.6376480417841409 -0.0607877563031784  0.6335317500000001   
  0.7282523583317917  0.5334233438066809  0.0718122500000000   
  0.7160112372113481  0.5055297959574929  0.3955215000000000   
  0.7365872282816454  0.5111760212957154  0.7188747500000000   
  0.3995324052584395  0.1007409794695481  0.3272892500000000   
  0.3925287672980917  0.1104271905588503  0.6321432500000000   
  0.4016408604190010  0.5995378311869749  0.3288192500000000   
  0.3818697066664731  0.5908336676378158  0.6720192500000000   
  0.9030303470110618  0.1047826092734295  0.3276110000000000   
  0.9072461067427382  0.1119446512947077  0.6441200000000000   
  0.9015403336779501  0.6038814186887463  0.3309610000000001   
  0.8968419016735012  0.6082074696273009  0.6453245000000001   
  0.0982442304718679  0.4020854456645486  0.3002812500000001   
  0.1193143997094019  0.3917542178594269  0.6243425000000000   
  0.0986204732208467  0.8981531697313546  0.3003415000000000   
  0.1078660347175404  0.8905828545976843  0.6166420000000000   
  0.5966795786602498  0.4033919196242033  0.3065432500000000   
  0.6031487678227364  0.3953530494420831  0.6327052500000000   
  0.5971237061865673  0.9021832911656248  0.3054315000000000   
  0.5496037867547707  0.8419550608325838  0.5925935000000000   
  0.1519451164098232  0.1492032719192895  0.3001050000000001   
  0.1454788037209527  0.1405917233446193  0.6131212500000001   
  0.1549780701905817  0.6499927156322299  0.3059480000000001   
  0.1526556053929865  0.6376623196203883  0.6272070000000001   
  0.6570797716499754  0.1555027342373393  0.3048675000000000   
  0.6420720582056191  0.1583091323696345  0.6290485000000001   
  0.6523036748578932  0.6524988001194367  0.3061650000000000   
  0.6305368237105530  0.6410101591420034  0.6291405000000001   
  0.3470384876497769  0.3494445190107942  0.3269277500000000   
  0.3591317580263558  0.3585673680067554  0.6409572500000000   
  0.3471943925197666  0.8524364454602498  0.3299675000000000   
  0.3469101969265013  0.8668778052693187  0.6563087500000000   
  0.8532000439708574  0.3529299109501414  0.3295507500000000   
  0.8638579540130294  0.3650986417698278  0.6377470000000001   
  0.8506877319146031  0.8514757706065272  0.3265110000000000   
  0.8625664173594251  0.8436889885206490  0.6387605000000001   
  0.1164546096403294  0.3842425406090129  0.1696682500000000   
  0.1032354874904302  0.3991343708857145  0.4929367500000000   
  0.1090879607096366  0.8898446748897753  0.1785235000000000   
  0.0972587506110107  0.8994629317966123  0.4911887500000000   
  0.6079875717396482  0.3975396396681830  0.1571515000000000   
  0.6011806845746380  0.3996314228493918  0.4820147500000000   
  0.6052399641416015  0.8966954429139545  0.1687695000000000   
  0.5939181639888460  0.9020698515223159  0.4854452500000000   
  0.3892818038802995  0.1126099446617466  0.1564905000000000   
  0.4012479341230491  0.0988157936388992  0.4644757500000000   
  0.3976753538919205  0.6062674873214379  0.1474872500000000   
  0.4039144251651234  0.5985179704323954  0.4626637500000000   
  0.9028491291732509  0.1075517422088889  0.1457990000000000   
  0.9035509887355659  0.1036849300195753  0.4631685000000000   
  0.9008120105583673  0.6155980349879986  0.1408970000000000   
  0.9025166088232360  0.6040896653769463  0.4609055000000000   
  0.3519710646065720  0.3560119619355013  0.1447090000000000   
  0.3496854186712621  0.3509899286442783  0.4644810000000000   
  0.3492338123135429  0.8657055956217931  0.1435605000000000   
  0.3458332452046538  0.8506219591849072  0.4586737500000000   
  0.8634621512434617  0.3686278751172171  0.1506600000000000   
  0.8558003761197626  0.3542632377722219  0.4631787500000000   
  0.8602543078668475  0.8555579537128475  0.1556737500000000   
  0.8499904747100736  0.8480599769024467  0.4637315000000000   
  0.1386046070733269  0.1405829550630109  0.1761572500000000   
  0.1540501198020454  0.1479554358428912  0.4920715000000001   
  0.1434111944857392  0.6355880730023963  0.1747645000000000   
  0.1563208080745518  0.6502415156228689  0.4799175000000000   
  0.6415307058710792  0.1395888511356562  0.1604280000000000   
  0.6582412916961345  0.1546708435197404  0.4857115000000001   
  0.6479613502871109  0.6540661304569420  0.1647295000000000    
  0.6510552853085295  0.6529306379886515  0.4862992500000000    
 
  0.00000000E+00  0.00000000E+00  0.00000000E+00
  0.00000000E+00  0.00000000E+00  0.00000000E+00
  0.00000000E+00  0.00000000E+00  0.00000000E+00
  0.00000000E+00  0.00000000E+00  0.00000000E+00
  0.00000000E+00  0.00000000E+00  0.00000000E+00
  0.00000000E+00  0.00000000E+00  0.00000000E+00
  0.00000000E+00  0.00000000E+00  0.00000000E+00
  0.00000000E+00  0.00000000E+00  0.00000000E+00
  0.00000000E+00  0.00000000E+00  0.00000000E+00
  0.00000000E+00  0.00000000E+00  0.00000000E+00
  0.00000000E+00  0.00000000E+00  0.00000000E+00
  0.00000000E+00  0.00000000E+00  0.00000000E+00
  0.00000000E+00  0.00000000E+00  0.00000000E+00
  0.00000000E+00  0.00000000E+00  0.00000000E+00
  0.00000000E+00  0.00000000E+00  0.00000000E+00
  0.00000000E+00  0.00000000E+00  0.00000000E+00
  0.00000000E+00  0.00000000E+00  0.00000000E+00
  0.00000000E+00  0.00000000E+00  0.00000000E+00
  0.00000000E+00  0.00000000E+00  0.00000000E+00
  0.00000000E+00  0.00000000E+00  0.00000000E+00
  0.00000000E+00  0.00000000E+00  0.00000000E+00
  0.00000000E+00  0.00000000E+00  0.00000000E+00
  0.00000000E+00  0.00000000E+00  0.00000000E+00
  0.00000000E+00  0.00000000E+00  0.00000000E+00
  0.00000000E+00  0.00000000E+00  0.00000000E+00
  0.00000000E+00  0.00000000E+00  0.00000000E+00
  0.00000000E+00  0.00000000E+00  0.00000000E+00
  0.00000000E+00  0.00000000E+00  0.00000000E+00
  0.00000000E+00  0.00000000E+00  0.00000000E+00
  0.00000000E+00  0.00000000E+00  0.00000000E+00
  0.00000000E+00  0.00000000E+00  0.00000000E+00
  0.00000000E+00  0.00000000E+00  0.00000000E+00
  0.00000000E+00  0.00000000E+00  0.00000000E+00
  0.00000000E+00  0.00000000E+00  0.00000000E+00
  0.00000000E+00  0.00000000E+00  0.00000000E+00
  0.00000000E+00  0.00000000E+00  0.00000000E+00
  0.00000000E+00  0.00000000E+00  0.00000000E+00
  0.00000000E+00  0.00000000E+00  0.00000000E+00
  0.00000000E+00  0.00000000E+00  0.00000000E+00
  0.00000000E+00  0.00000000E+00  0.00000000E+00
  0.00000000E+00  0.00000000E+00  0.00000000E+00
  0.00000000E+00  0.00000000E+00  0.00000000E+00
  0.00000000E+00  0.00000000E+00  0.00000000E+00
  0.00000000E+00  0.00000000E+00  0.00000000E+00
  0.00000000E+00  0.00000000E+00  0.00000000E+00
  0.00000000E+00  0.00000000E+00  0.00000000E+00
  0.00000000E+00  0.00000000E+00  0.00000000E+00
  0.00000000E+00  0.00000000E+00  0.00000000E+00
  0.00000000E+00  0.00000000E+00  0.00000000E+00
  0.00000000E+00  0.00000000E+00  0.00000000E+00
  0.00000000E+00  0.00000000E+00  0.00000000E+00
  0.00000000E+00  0.00000000E+00  0.00000000E+00
  0.00000000E+00  0.00000000E+00  0.00000000E+00
  0.00000000E+00  0.00000000E+00  0.00000000E+00
  0.00000000E+00  0.00000000E+00  0.00000000E+00
  0.00000000E+00  0.00000000E+00  0.00000000E+00
  0.00000000E+00  0.00000000E+00  0.00000000E+00
  0.00000000E+00  0.00000000E+00  0.00000000E+00
  0.00000000E+00  0.00000000E+00  0.00000000E+00
  0.00000000E+00  0.00000000E+00  0.00000000E+00
  0.00000000E+00  0.00000000E+00  0.00000000E+00
  0.00000000E+00  0.00000000E+00  0.00000000E+00
  0.00000000E+00  0.00000000E+00  0.00000000E+00
  0.00000000E+00  0.00000000E+00  0.00000000E+00
  0.00000000E+00  0.00000000E+00  0.00000000E+00
  0.00000000E+00  0.00000000E+00  0.00000000E+00
  0.00000000E+00  0.00000000E+00  0.00000000E+00
  0.00000000E+00  0.00000000E+00  0.00000000E+00
  0.00000000E+00  0.00000000E+00  0.00000000E+00
  0.00000000E+00  0.00000000E+00  0.00000000E+00
  0.00000000E+00  0.00000000E+00  0.00000000E+00
  0.00000000E+00  0.00000000E+00  0.00000000E+00
  0.00000000E+00  0.00000000E+00  0.00000000E+00
  0.00000000E+00  0.00000000E+00  0.00000000E+00
  0.00000000E+00  0.00000000E+00  0.00000000E+00
  0.00000000E+00  0.00000000E+00  0.00000000E+00
  0.00000000E+00  0.00000000E+00  0.00000000E+00
  0.00000000E+00  0.00000000E+00  0.00000000E+00
  0.00000000E+00  0.00000000E+00  0.00000000E+00
  0.00000000E+00  0.00000000E+00  0.00000000E+00
  0.00000000E+00  0.00000000E+00  0.00000000E+00
  0.00000000E+00  0.00000000E+00  0.00000000E+00
  0.00000000E+00  0.00000000E+00  0.00000000E+00
  0.00000000E+00  0.00000000E+00  0.00000000E+00
  0.00000000E+00  0.00000000E+00  0.00000000E+00
  0.00000000E+00  0.00000000E+00  0.00000000E+00
  0.00000000E+00  0.00000000E+00  0.00000000E+00
  0.00000000E+00  0.00000000E+00  0.00000000E+00
  0.00000000E+00  0.00000000E+00  0.00000000E+00
  0.00000000E+00  0.00000000E+00  0.00000000E+00
  0.00000000E+00  0.00000000E+00  0.00000000E+00
  0.00000000E+00  0.00000000E+00  0.00000000E+00
  0.00000000E+00  0.00000000E+00  0.00000000E+00
  0.00000000E+00  0.00000000E+00  0.00000000E+00
  0.00000000E+00  0.00000000E+00  0.00000000E+00
  0.00000000E+00  0.00000000E+00  0.00000000E+00
  0.00000000E+00  0.00000000E+00  0.00000000E+00
  0.00000000E+00  0.00000000E+00  0.00000000E+00
  0.00000000E+00  0.00000000E+00  0.00000000E+00
  0.00000000E+00  0.00000000E+00  0.00000000E+00
  0.00000000E+00  0.00000000E+00  0.00000000E+00
  0.00000000E+00  0.00000000E+00  0.00000000E+00
  0.00000000E+00  0.00000000E+00  0.00000000E+00
  0.00000000E+00  0.00000000E+00  0.00000000E+00
  0.00000000E+00  0.00000000E+00  0.00000000E+00
  0.00000000E+00  0.00000000E+00  0.00000000E+00
  0.00000000E+00  0.00000000E+00  0.00000000E+00
  0.00000000E+00  0.00000000E+00  0.00000000E+00
  0.00000000E+00  0.00000000E+00  0.00000000E+00
  0.00000000E+00  0.00000000E+00  0.00000000E+00
  0.00000000E+00  0.00000000E+00  0.00000000E+00
  0.00000000E+00  0.00000000E+00  0.00000000E+00
  0.00000000E+00  0.00000000E+00  0.00000000E+00
  0.00000000E+00  0.00000000E+00  0.00000000E+00
  0.00000000E+00  0.00000000E+00  0.00000000E+00
  0.00000000E+00  0.00000000E+00  0.00000000E+00
  0.00000000E+00  0.00000000E+00  0.00000000E+00
  0.00000000E+00  0.00000000E+00  0.00000000E+00
  0.00000000E+00  0.00000000E+00  0.00000000E+00
  0.00000000E+00  0.00000000E+00  0.00000000E+00
  0.00000000E+00  0.00000000E+00  0.00000000E+00
  0.00000000E+00  0.00000000E+00  0.00000000E+00
  0.00000000E+00  0.00000000E+00  0.00000000E+00
  0.00000000E+00  0.00000000E+00  0.00000000E+00
  0.00000000E+00  0.00000000E+00  0.00000000E+00
  0.00000000E+00  0.00000000E+00  0.00000000E+00
  0.00000000E+00  0.00000000E+00  0.00000000E+00
  0.00000000E+00  0.00000000E+00  0.00000000E+00
  0.00000000E+00  0.00000000E+00  0.00000000E+00
  0.00000000E+00  0.00000000E+00  0.00000000E+00
  0.00000000E+00  0.00000000E+00  0.00000000E+00
  0.00000000E+00  0.00000000E+00  0.00000000E+00
  0.00000000E+00  0.00000000E+00  0.00000000E+00
  0.00000000E+00  0.00000000E+00  0.00000000E+00
  0.00000000E+00  0.00000000E+00  0.00000000E+00
  0.00000000E+00  0.00000000E+00  0.00000000E+00
  0.00000000E+00  0.00000000E+00  0.00000000E+00
  0.00000000E+00  0.00000000E+00  0.00000000E+00
  0.00000000E+00  0.00000000E+00  0.00000000E+00
  0.00000000E+00  0.00000000E+00  0.00000000E+00
  0.00000000E+00  0.00000000E+00  0.00000000E+00
  0.00000000E+00  0.00000000E+00  0.00000000E+00
  0.00000000E+00  0.00000000E+00  0.00000000E+00
  0.00000000E+00  0.00000000E+00  0.00000000E+00
  0.00000000E+00  0.00000000E+00  0.00000000E+00
  0.00000000E+00  0.00000000E+00  0.00000000E+00
  0.00000000E+00  0.00000000E+00  0.00000000E+00
  0.00000000E+00  0.00000000E+00  0.00000000E+00
  0.00000000E+00  0.00000000E+00  0.00000000E+00
  0.00000000E+00  0.00000000E+00  0.00000000E+00
  0.00000000E+00  0.00000000E+00  0.00000000E+00
  0.00000000E+00  0.00000000E+00  0.00000000E+00
  0.00000000E+00  0.00000000E+00  0.00000000E+00
  0.00000000E+00  0.00000000E+00  0.00000000E+00
  0.00000000E+00  0.00000000E+00  0.00000000E+00
