This file is generated by VASPKIT code
1.0
       17.3823947906         0.0000000000         0.0000000000
        0.0000000000        18.2475891113         0.0000000000
        0.0000000000         0.0000000000        40.0000000000
   Cs   Pb    I
   28   31   96
Direct
     0.496210963         0.482718974         0.395021141
     0.496210963         0.982718945         0.079004228
     0.496210963         0.982718945         0.395021141
     0.496210963         0.982718945         0.711037993
     0.996210992         0.482718974         0.395021141
     0.996210992         0.982718945         0.395021141
     0.003789000         0.017281001         0.237012669
     0.003789000         0.017281001         0.553029597
     0.003789000         0.517280996         0.237012669
     0.003789000         0.517280996         0.553029597
     0.503789008         0.017281001         0.237012669
     0.503789008         0.017281001         0.553029597
     0.503789008         0.517280996         0.237012669
     0.503789008         0.517280996         0.553029597
     0.246210992         0.267280996         0.237012669
     0.246210992         0.267280996         0.553029597
     0.246210992         0.767280996         0.237012669
     0.246210992         0.767280996         0.553029597
     0.746210992         0.267280996         0.237012669
     0.746210992         0.267280996         0.553029597
     0.746210992         0.767280996         0.237012669
     0.746210992         0.767280996         0.553029597
     0.253789008         0.232719004         0.395021141
     0.253789008         0.732719004         0.395021141
     0.753789008         0.232719004         0.395021141
     0.753789008         0.732719004         0.079004228
     0.753789008         0.732719004         0.395021141
     0.753789008         0.732719004         0.711037993
     0.250000000         0.000000000         0.316016912
     0.250000000         0.000000000         0.632033825
     0.250000000         0.500000000         0.316016912
     0.250000000         0.500000000         0.632033825
     0.750000000         0.000000000         0.316016912
     0.750000000         0.500000000         0.316016912
     0.750000000         0.500000000         0.632033825
     0.000000000         0.250000000         0.316016912
     0.000000000         0.250000000         0.632033825
     0.000000000         0.750000000         0.316016912
     0.000000000         0.750000000         0.632033825
     0.500000000         0.250000000         0.316016912
     0.500000000         0.250000000         0.632033825
     0.500000000         0.750000000         0.316016912
     0.500000000         0.750000000         0.632033825
     0.250000000         0.000000000         0.158008456
     0.250000000         0.000000000         0.474025339
     0.250000000         0.500000000         0.158008456
     0.250000000         0.500000000         0.474025339
     0.750000000         0.000000000         0.158008456
     0.750000000         0.000000000         0.474025339
     0.750000000         0.500000000         0.158008456
     0.750000000         0.500000000         0.474025339
     0.000000000         0.250000000         0.158008456
     0.000000000         0.250000000         0.474025339
     0.000000000         0.750000000         0.158008456
     0.000000000         0.750000000         0.474025339
     0.500000000         0.250000000         0.158008456
     0.500000000         0.250000000         0.474025339
     0.500000000         0.750000000         0.158008456
     0.500000000         0.750000000         0.474025339
     0.025739500         0.253570497         0.395021141
     0.025739500         0.753570497         0.395021141
     0.525739491         0.253570497         0.079004228
     0.525739491         0.253570497         0.395021141
     0.525739491         0.253570497         0.711037993
     0.525739491         0.753570497         0.079004228
     0.525739491         0.753570497         0.395021141
     0.525739491         0.753570497         0.711037993
     0.474260509         0.246429503         0.237012669
     0.474260509         0.246429503         0.553029597
     0.474260509         0.746429503         0.237012669
     0.474260509         0.746429503         0.553029597
     0.974260509         0.246429503         0.237012669
     0.974260509         0.246429503         0.553029597
     0.974260509         0.746429503         0.237012669
     0.974260509         0.746429503         0.553029597
     0.275739491         0.496429503         0.237012669
     0.275739491         0.496429503         0.553029597
     0.275739491         0.996429563         0.237012669
     0.275739491         0.996429563         0.553029597
     0.775739491         0.496429503         0.237012669
     0.775739491         0.496429503         0.553029597
     0.775739491         0.996429563         0.237012669
     0.775739491         0.996429563         0.553029597
     0.224260494         0.003570500         0.395021141
     0.224260494         0.503570497         0.395021141
     0.724260509         0.003570500         0.079004228
     0.724260509         0.003570500         0.395021141
     0.724260509         0.003570500         0.711037993
     0.724260509         0.503570497         0.079004228
     0.724260509         0.503570497         0.395021141
     0.724260509         0.503570497         0.711037993
     0.398312002         0.101962000         0.324209630
     0.398312002         0.101962000         0.640226543
     0.398312002         0.601962030         0.324209630
     0.398312002         0.601962030         0.640226543
     0.898311973         0.101962000         0.324209630
     0.898311973         0.101962000         0.640226543
     0.898311973         0.601962030         0.324209630
     0.898311973         0.601962030         0.640226543
     0.101687998         0.398038000         0.307824165
     0.101687998         0.398038000         0.623841047
     0.101687998         0.898037970         0.307824165
     0.101687998         0.898037970         0.623841047
     0.601688027         0.398038000         0.307824165
     0.601688027         0.398038000         0.623841047
     0.601688027         0.898037970         0.307824165
     0.601688027         0.898037970         0.623841047
     0.148312002         0.148038000         0.307824165
     0.148312002         0.148038000         0.623841047
     0.148312002         0.648037970         0.307824165
     0.148312002         0.648037970         0.623841047
     0.648311973         0.148038000         0.307824165
     0.648311973         0.148038000         0.623841047
     0.648311973         0.648037970         0.307824165
     0.648311973         0.648037970         0.623841047
     0.351688027         0.351962000         0.324209630
     0.351688027         0.351962000         0.640226543
     0.351688027         0.851962030         0.324209630
     0.351688027         0.851962030         0.640226543
     0.851688027         0.351962000         0.324209630
     0.851688027         0.351962000         0.640226543
     0.851688027         0.851962030         0.324209630
     0.851688027         0.851962030         0.640226543
     0.101687998         0.398038000         0.166201189
     0.101687998         0.398038000         0.482218087
     0.101687998         0.898037970         0.166201189
     0.101687998         0.898037970         0.482218087
     0.601688027         0.398038000         0.166201189
     0.601688027         0.398038000         0.482218087
     0.601688027         0.898037970         0.166201189
     0.601688027         0.898037970         0.482218087
     0.398312002         0.101962000         0.149815708
     0.398312002         0.101962000         0.465832621
     0.398312002         0.601962030         0.149815708
     0.398312002         0.601962030         0.465832621
     0.898311973         0.101962000         0.149815708
     0.898311973         0.101962000         0.465832621
     0.898311973         0.601962030         0.149815708
     0.898311973         0.601962030         0.465832621
     0.351688027         0.351962000         0.149815708
     0.351688027         0.351962000         0.465832621
     0.351688027         0.851962030         0.149815708
     0.351688027         0.851962030         0.465832621
     0.851688027         0.351962000         0.149815708
     0.851688027         0.351962000         0.465832621
     0.851688027         0.851962030         0.149815708
     0.851688027         0.851962030         0.465832621
     0.148312002         0.148038000         0.166201189
     0.148312002         0.148038000         0.482218087
     0.148312002         0.648037970         0.166201189
     0.148312002         0.648037970         0.482218087
     0.648311973         0.148038000         0.166201189
     0.648311973         0.148038000         0.482218087
     0.648311973         0.648037970         0.166201189
     0.648311973         0.648037970         0.482218087
