This file is generated by VASPKIT code  
   1.00000000000000     
    17.3823947905999994    0.0000000000000000    0.0000000000000000
     0.0000000000000000   18.2475891113000017    0.0000000000000000
     0.0000000000000000    0.0000000000000000   40.0000000000000000
   Cs   Pb   I 
    24    24    88
Direct
  0.4824920925633986  0.4827849890337654  0.3964759751568584
  0.4824920925633986  0.4827849890337655  0.7095832184431384
  0.5148787109443627 -0.0039430246234661  0.3871983631240569
  0.5148787109443627 -0.0039430246234661  0.7188608304759395
  0.9844962399726848  0.4707846103893652  0.3921289202528652
  0.9844962399726848  0.4707846103893652  0.7139302733471314
 -0.0173999748611473  0.9655157363232382  0.4000654956108358
 -0.0173999748611473  0.9655157363232382  0.7059936979891609
  0.0017159381766517  0.0343110861544169  0.5530295968000019
  0.0116927190653339  0.5270431582730465  0.5530295968000019
  0.5050951755677260  0.0396122804127273  0.5530295968000019
  0.5042439943226330  0.5397208760176238  0.5530295968000019
  0.2223255628814702  0.2705049131114671  0.5530295968000019
  0.2428501744487068  0.7955639230045273  0.5530295968000019
  0.7454395748186800  0.2729381435968827  0.5530295968000019
  0.7333572240063334  0.7918521040264320  0.5530295968000019
  0.2199859918967645  0.2575636083911025  0.3791842629504297
  0.2199859918967645  0.2575636083911025  0.7268749306495673
  0.2504146016347935  0.7601964881218950  0.3811915768182159
  0.2504146016347935  0.7601964881218950  0.7248676167817806
  0.7644138025161480  0.2030903724833905  0.3938014298152365
  0.7644138025161480  0.2030903724833905  0.7122577637847602
  0.7932196322836600  0.7379727694241786  0.3872718392993901
  0.7932196322836600  0.7379727694241786  0.7187873543006063
  0.2489256768245840  0.0059159969309901  0.6343451918573515
  0.2340271305844549  0.5039851866235227  0.3222252442386966
  0.2485881463356343  0.5031827545269160  0.6316535016769323
  0.7479609526805387 -0.0021835385583663  0.6340465270369804
  0.7570659145598991  0.4874386145147124  0.3248259611799602
  0.7467854000308045  0.5033493061163771  0.6301173607646957
 -0.0068587235148042  0.2535527753359047  0.6356597355499921
  0.0024713415466858  0.7486929770199030  0.6301790090790274
  0.4995605717563533  0.2373490124372238  0.3246077014172434
  0.4936563151781723  0.2545972136465348  0.6322913959577248
  0.5057590044897694  0.7492600536488887  0.3234016276190793
  0.4990107959165028  0.7562320458796492  0.6323322497517787
  0.2489256768245840  0.0059159969309901  0.4717139719676510
  0.2485881463356343  0.5031827545269160  0.4744056621480693
  0.2340271305844549  0.5039851866235227  0.7838339493613065
  0.7479609526805387 -0.0021835385583663  0.4720126367880211
  0.7467854000308045  0.5033493061163771  0.4759418030603062
  0.7570659145598991  0.4874386145147124  0.7812332324200436
 -0.0068587235148042  0.2535527753359047  0.4703994282750092
  0.0024713415466858  0.7486929770199030  0.4758801547459743
  0.4936563151781723  0.2545972136465348  0.4737677678672773
  0.4995605717563533  0.2373490124372238  0.7814514921827611
  0.4990107959165028  0.7562320458796492  0.4737269140732235
  0.5057590044897694  0.7492600536488887  0.7826575659809238
 -0.0031398344710912  0.2509441785571591  0.3939055539617921
 -0.0031398344710912  0.2509441785571591  0.7121536396382043
  0.0271136424743903  0.7521525245161572  0.4005064184150897
  0.0271136424743903  0.7521525245161572  0.7055527751849066
  0.5501756518367662  0.2795946003372576  0.3965516849994959
  0.5501756518367662  0.2795946003372576  0.7095075086005000
  0.5648934337704608  0.7702430137199887  0.3960788525596244
  0.5648934337704608  0.7702430137199887  0.7099803410403718
  0.4527553960952882  0.2497556933045381  0.5530295968000019
  0.4653817136750511  0.7558202113853094  0.5530295968000019
  0.9787730199162774  0.2507224834421946  0.5530295968000019
  0.9578158816207849  0.7394558499256940  0.5530295968000019
  0.2813940563756467  0.4789201477923628  0.5530295968000019
  0.2751892330882879  0.0121855810663587  0.5530295968000019
  0.7887667357241555  0.4883190488049550  0.5530295968000019
  0.7746064822591692  0.0045734851364065  0.5530295968000019
  0.2186718477273914 -0.0212022453035910  0.3938815164812908
  0.2186718477273914 -0.0212022453035910  0.7121776771187057
  0.2029516458320262  0.5400909102890049  0.3968243164796776
  0.2029516458320262  0.5400909102890049  0.7092348771203187
  0.7451336505646527 -0.0122467119243687  0.3944364817295780
  0.7451336505646527 -0.0122467119243687  0.7116227118704184
  0.7052252517914939  0.5289897393667513  0.3957738956015223
  0.7052252517914939  0.5289897393667513  0.7102852979984746
  0.3768800336549394  0.1314120572729791  0.3404830955844329
  0.4027608447988146  0.1001791056185398  0.6446177608476257
  0.3903085094328885  0.6264814388247236  0.3355330795171005
  0.3990405946932936  0.6053106066739772  0.6392355986959810
  0.0388530099984608  0.1507398418802312  0.2948963757051961
  0.8984885654780255  0.1012791232067541  0.6389217866259632
  0.8812145077234703  0.6023238577458361  0.3194814315716509
  0.8989906464969647  0.6002163109192277  0.6429429484893023
  0.1051295830423331  0.3982564233122812  0.3167036864762774
  0.0952247414197984  0.4024332914344351  0.6269644439830895
  0.0214834497039946  0.7584627683369750  0.3063533751083691
  0.0978732871919802  0.8985189938538238  0.6184212176099907
  0.5857863243919922  0.4512332341489571  0.2974034560624913
  0.5931795747746664  0.4025978403893085  0.6188125592229162
  0.6656585102803860  0.7609209269936457  0.2707944626424776
  0.5928447869569103  0.9054992451004978  0.6206740439785341
  0.1256516352338245  0.0713650739574511  0.3412167812155469
  0.1501067761605020  0.1538635246375749  0.6311913112819082
  0.1607920656809337  0.6682066261825010  0.2963038291129380
  0.1487769505436217  0.6493024170947745  0.6141033869257757
  0.6261617401855478  0.1270458239972500  0.3205192617608243
  0.6443297433669890  0.1507984841486512  0.6242007681016294
  0.6252128321913865  0.6103188417759533  0.2813854301866560
  0.6478379619469127  0.6502026346225027  0.6173071550384824
  0.3596041524081995  0.3847031836907647  0.3278523569605986
  0.3423057269208974  0.3553306133624844  0.6500813125889462
  0.3964692757976110  0.8743187339539055  0.3239165707004212
  0.3464520317907124  0.8511444088895657  0.6439507901172535
  0.8484082864878723  0.3519404522406097  0.3339490708193388
  0.8372717074221960  0.3494385807897640  0.6425968111951931
  0.8974660958139984  0.8621073399617757  0.3164326383010698
  0.8482556010522282  0.8496530124710701  0.6377938780485305
  0.0952247414197984  0.4024332914344351  0.4790946900169100
  0.1051295830423331  0.3982564233122812  0.7893554773237275
  0.0978732871919802  0.8985189938538238  0.4876379163900079
  0.0214834497039946  0.7584627683369750  0.7997057886916368
  0.5931795747746664  0.4025978403893085  0.4872465747770831
  0.5857863243919922  0.4512332341489571  0.8086557077375142
  0.5928447869569103  0.9054992451004978  0.4853850900214641
  0.6656585102803860  0.7609209269936457  0.8352647011575267
  0.4027608447988146  0.1001791056185398  0.4614414029523802
  0.3768800336549394  0.1314120572729791  0.7655760384405694
  0.3990405946932936  0.6053106066739772  0.4668235651040244
  0.3903085094328885  0.6264814388247236  0.7705260545079016
  0.8984885654780255  0.1012791232067541  0.4671373771740425
  0.0388530099984608  0.1507398418802312  0.8111627583198074
  0.8989906464969647  0.6002163109192277  0.4631162153107019
  0.8812145077234703  0.6023238577458361  0.7865777024533519
  0.3423057269208974  0.3553306133624844  0.4559778512110583
  0.3596041524081995  0.3847031836907647  0.7782067770644052
  0.3464520317907124  0.8511444088895657  0.4621083736827503
  0.3964692757976110  0.8743187339539055  0.7821425633245811
  0.8372717074221960  0.3494385807897640  0.4634623526048115
  0.8484082864878723  0.3519404522406097  0.7721100632056640
  0.8482556010522282  0.8496530124710701  0.4682652857514746
  0.8974660958139984  0.8621073399617757  0.7896264957239331
  0.1501067761605020  0.1538635246375749  0.4748678227180906
  0.1256516352338245  0.0713650739574511  0.7648423825844574
  0.1487769505436217  0.6493024170947745  0.4919557470742225
  0.1607920656809337  0.6682066261825010  0.8097553346870671
  0.6443297433669890  0.1507984841486512  0.4818583658983692
  0.6261617401855478  0.1270458239972500  0.7855399020391801
  0.6478379619469127  0.6502026346225027  0.4887519789615160
  0.6252128321913865  0.6103188417759533  0.8246737336133494
 
  0.00000000E+00  0.00000000E+00  0.00000000E+00
  0.00000000E+00  0.00000000E+00  0.00000000E+00
  0.00000000E+00  0.00000000E+00  0.00000000E+00
  0.00000000E+00  0.00000000E+00  0.00000000E+00
  0.00000000E+00  0.00000000E+00  0.00000000E+00
  0.00000000E+00  0.00000000E+00  0.00000000E+00
  0.00000000E+00  0.00000000E+00  0.00000000E+00
  0.00000000E+00  0.00000000E+00  0.00000000E+00
  0.00000000E+00  0.00000000E+00  0.00000000E+00
  0.00000000E+00  0.00000000E+00  0.00000000E+00
  0.00000000E+00  0.00000000E+00  0.00000000E+00
  0.00000000E+00  0.00000000E+00  0.00000000E+00
  0.00000000E+00  0.00000000E+00  0.00000000E+00
  0.00000000E+00  0.00000000E+00  0.00000000E+00
  0.00000000E+00  0.00000000E+00  0.00000000E+00
  0.00000000E+00  0.00000000E+00  0.00000000E+00
  0.00000000E+00  0.00000000E+00  0.00000000E+00
  0.00000000E+00  0.00000000E+00  0.00000000E+00
  0.00000000E+00  0.00000000E+00  0.00000000E+00
  0.00000000E+00  0.00000000E+00  0.00000000E+00
  0.00000000E+00  0.00000000E+00  0.00000000E+00
  0.00000000E+00  0.00000000E+00  0.00000000E+00
  0.00000000E+00  0.00000000E+00  0.00000000E+00
  0.00000000E+00  0.00000000E+00  0.00000000E+00
  0.00000000E+00  0.00000000E+00  0.00000000E+00
  0.00000000E+00  0.00000000E+00  0.00000000E+00
  0.00000000E+00  0.00000000E+00  0.00000000E+00
  0.00000000E+00  0.00000000E+00  0.00000000E+00
  0.00000000E+00  0.00000000E+00  0.00000000E+00
  0.00000000E+00  0.00000000E+00  0.00000000E+00
  0.00000000E+00  0.00000000E+00  0.00000000E+00
  0.00000000E+00  0.00000000E+00  0.00000000E+00
  0.00000000E+00  0.00000000E+00  0.00000000E+00
  0.00000000E+00  0.00000000E+00  0.00000000E+00
  0.00000000E+00  0.00000000E+00  0.00000000E+00
  0.00000000E+00  0.00000000E+00  0.00000000E+00
  0.00000000E+00  0.00000000E+00  0.00000000E+00
  0.00000000E+00  0.00000000E+00  0.00000000E+00
  0.00000000E+00  0.00000000E+00  0.00000000E+00
  0.00000000E+00  0.00000000E+00  0.00000000E+00
  0.00000000E+00  0.00000000E+00  0.00000000E+00
  0.00000000E+00  0.00000000E+00  0.00000000E+00
  0.00000000E+00  0.00000000E+00  0.00000000E+00
  0.00000000E+00  0.00000000E+00  0.00000000E+00
  0.00000000E+00  0.00000000E+00  0.00000000E+00
  0.00000000E+00  0.00000000E+00  0.00000000E+00
  0.00000000E+00  0.00000000E+00  0.00000000E+00
  0.00000000E+00  0.00000000E+00  0.00000000E+00
  0.00000000E+00  0.00000000E+00  0.00000000E+00
  0.00000000E+00  0.00000000E+00  0.00000000E+00
  0.00000000E+00  0.00000000E+00  0.00000000E+00
  0.00000000E+00  0.00000000E+00  0.00000000E+00
  0.00000000E+00  0.00000000E+00  0.00000000E+00
  0.00000000E+00  0.00000000E+00  0.00000000E+00
  0.00000000E+00  0.00000000E+00  0.00000000E+00
  0.00000000E+00  0.00000000E+00  0.00000000E+00
  0.00000000E+00  0.00000000E+00  0.00000000E+00
  0.00000000E+00  0.00000000E+00  0.00000000E+00
  0.00000000E+00  0.00000000E+00  0.00000000E+00
  0.00000000E+00  0.00000000E+00  0.00000000E+00
  0.00000000E+00  0.00000000E+00  0.00000000E+00
  0.00000000E+00  0.00000000E+00  0.00000000E+00
  0.00000000E+00  0.00000000E+00  0.00000000E+00
  0.00000000E+00  0.00000000E+00  0.00000000E+00
  0.00000000E+00  0.00000000E+00  0.00000000E+00
  0.00000000E+00  0.00000000E+00  0.00000000E+00
  0.00000000E+00  0.00000000E+00  0.00000000E+00
  0.00000000E+00  0.00000000E+00  0.00000000E+00
  0.00000000E+00  0.00000000E+00  0.00000000E+00
  0.00000000E+00  0.00000000E+00  0.00000000E+00
  0.00000000E+00  0.00000000E+00  0.00000000E+00
  0.00000000E+00  0.00000000E+00  0.00000000E+00
  0.00000000E+00  0.00000000E+00  0.00000000E+00
  0.00000000E+00  0.00000000E+00  0.00000000E+00
  0.00000000E+00  0.00000000E+00  0.00000000E+00
  0.00000000E+00  0.00000000E+00  0.00000000E+00
  0.00000000E+00  0.00000000E+00  0.00000000E+00
  0.00000000E+00  0.00000000E+00  0.00000000E+00
  0.00000000E+00  0.00000000E+00  0.00000000E+00
  0.00000000E+00  0.00000000E+00  0.00000000E+00
  0.00000000E+00  0.00000000E+00  0.00000000E+00
  0.00000000E+00  0.00000000E+00  0.00000000E+00
  0.00000000E+00  0.00000000E+00  0.00000000E+00
  0.00000000E+00  0.00000000E+00  0.00000000E+00
  0.00000000E+00  0.00000000E+00  0.00000000E+00
  0.00000000E+00  0.00000000E+00  0.00000000E+00
  0.00000000E+00  0.00000000E+00  0.00000000E+00
  0.00000000E+00  0.00000000E+00  0.00000000E+00
  0.00000000E+00  0.00000000E+00  0.00000000E+00
  0.00000000E+00  0.00000000E+00  0.00000000E+00
  0.00000000E+00  0.00000000E+00  0.00000000E+00
  0.00000000E+00  0.00000000E+00  0.00000000E+00
  0.00000000E+00  0.00000000E+00  0.00000000E+00
  0.00000000E+00  0.00000000E+00  0.00000000E+00
  0.00000000E+00  0.00000000E+00  0.00000000E+00
  0.00000000E+00  0.00000000E+00  0.00000000E+00
  0.00000000E+00  0.00000000E+00  0.00000000E+00
  0.00000000E+00  0.00000000E+00  0.00000000E+00
  0.00000000E+00  0.00000000E+00  0.00000000E+00
  0.00000000E+00  0.00000000E+00  0.00000000E+00
  0.00000000E+00  0.00000000E+00  0.00000000E+00
  0.00000000E+00  0.00000000E+00  0.00000000E+00
  0.00000000E+00  0.00000000E+00  0.00000000E+00
  0.00000000E+00  0.00000000E+00  0.00000000E+00
  0.00000000E+00  0.00000000E+00  0.00000000E+00
  0.00000000E+00  0.00000000E+00  0.00000000E+00
  0.00000000E+00  0.00000000E+00  0.00000000E+00
  0.00000000E+00  0.00000000E+00  0.00000000E+00
  0.00000000E+00  0.00000000E+00  0.00000000E+00
  0.00000000E+00  0.00000000E+00  0.00000000E+00
  0.00000000E+00  0.00000000E+00  0.00000000E+00
  0.00000000E+00  0.00000000E+00  0.00000000E+00
  0.00000000E+00  0.00000000E+00  0.00000000E+00
  0.00000000E+00  0.00000000E+00  0.00000000E+00
  0.00000000E+00  0.00000000E+00  0.00000000E+00
  0.00000000E+00  0.00000000E+00  0.00000000E+00
  0.00000000E+00  0.00000000E+00  0.00000000E+00
  0.00000000E+00  0.00000000E+00  0.00000000E+00
  0.00000000E+00  0.00000000E+00  0.00000000E+00
  0.00000000E+00  0.00000000E+00  0.00000000E+00
  0.00000000E+00  0.00000000E+00  0.00000000E+00
  0.00000000E+00  0.00000000E+00  0.00000000E+00
  0.00000000E+00  0.00000000E+00  0.00000000E+00
  0.00000000E+00  0.00000000E+00  0.00000000E+00
  0.00000000E+00  0.00000000E+00  0.00000000E+00
  0.00000000E+00  0.00000000E+00  0.00000000E+00
  0.00000000E+00  0.00000000E+00  0.00000000E+00
  0.00000000E+00  0.00000000E+00  0.00000000E+00
  0.00000000E+00  0.00000000E+00  0.00000000E+00
  0.00000000E+00  0.00000000E+00  0.00000000E+00
  0.00000000E+00  0.00000000E+00  0.00000000E+00
  0.00000000E+00  0.00000000E+00  0.00000000E+00
  0.00000000E+00  0.00000000E+00  0.00000000E+00
  0.00000000E+00  0.00000000E+00  0.00000000E+00
  0.00000000E+00  0.00000000E+00  0.00000000E+00
  0.00000000E+00  0.00000000E+00  0.00000000E+00
