This file is generated by VASPKIT code  
   1.00000000000000     
    17.3823947905999994    0.0000000000000000    0.0000000000000000
     0.0000000000000000   18.2475891113000017    0.0000000000000000
     0.0000000000000000    0.0000000000000000   37.9220275878999971
   Cs   Pb   I 
    24    32    96
Direct
  0.5154064965415937  0.4907008721414344  0.4048730182870923
  0.5154064965415937  0.4907008721414344  0.7617936384587755
  0.5154064965415937  0.9907008423484558  0.4048730182870923
  0.5154064965415937  0.9907008423484558  0.7617936384587755
  0.9762850721531878  0.4672203099217693  0.4116943760059968
  0.9762850721531878  0.4672203099217693  0.7549722807398711
  0.9762850721531878  0.9672202801287904  0.4116943760059968
  0.9762850721531878  0.9672202801287905  0.7549722807398711
  0.0062600205989582  0.0319235268525551  0.5833333134607557
  0.0062600205989582  0.5319235230904160  0.5833333134607557
  0.5196396568899301  0.0377149994200910  0.5833333134607557
  0.5196396568899301  0.5377149956579521  0.5833333134607557
  0.2303603580130784  0.2877149956483597  0.5833333134607557
  0.2303603580130784  0.7877149956675373  0.5833333134607557
  0.7437399719826129  0.2819235230808235  0.5833333134607557
  0.7437399719826129  0.7819235231000012  0.5833333134607557
  0.2345935332615461  0.2407008274136077  0.4048730182870923
  0.2345935332615461  0.2407008274136077  0.7617936384587755
  0.2345935332615461  0.7407008423388635  0.4048730182870923
  0.2345935332615461  0.7407008423388635  0.7617936384587755
  0.7737148682721665  0.2172202651939425  0.4116943760059968
  0.7737148682721665  0.2172202651939425  0.7549722807398711
  0.7737148682721665  0.7172202801191980  0.4116943760059968
  0.7737148682721665  0.7172202801191981  0.7549722807398711
  0.2413634508025372 -0.0028601170006471  0.3406850730935838
  0.2548412442394197  0.0033312818839111  0.6661988214007600
  0.2413634508025372  0.4971398830185307  0.3406850730935838
  0.2548412442394197  0.5033312819030888  0.6661988214007600
  0.7556170855164104 -0.0115981763694790  0.3157777410163283
  0.7498508293096555  0.0006381270364009  0.6678552629094925
  0.7556170855164104  0.4884018236496983  0.3157777410163283
  0.7498508293096555  0.5006381270555782  0.6678552629094925
 -0.0056170855135327  0.2384018236401132  0.3157777410163283
  0.0001491706932226  0.2506381270459934  0.6678552629094925
 -0.0056170855135327  0.7384018236044865  0.3157777410163283
  0.0001491706932226  0.7506381270103664  0.6678552629094925
  0.5086365492003407  0.2471398830089452  0.3406850730935838
  0.4951587557634580  0.2533312818935035  0.6661988214007600
  0.5086365492003407  0.7471398829733190  0.3406850730935838
  0.4951587557634580  0.7533312818578771  0.6661988214007600
  0.2548412442394198  0.0033312818839111  0.5004678651431028
  0.2413634508025372 -0.0028601170006471  0.8259815836259151
  0.2548412442394197  0.5033312819030888  0.5004678651431028
  0.2413634508025372  0.4971398830185307  0.8259815836259151
  0.7498508293096555  0.0006381270364009  0.4988114236343703
  0.7556170855164104 -0.0115981763694790  0.8508889157031715
  0.7498508293096555  0.5006381270555782  0.4988114236343703
  0.7556170855164104  0.4884018236496983  0.8508889157031715
  0.0001491706932226  0.2506381270459934  0.4988114236343703
 -0.0056170855135327  0.2384018236401132  0.8508889157031715
  0.0001491706932226  0.7506381270103664  0.4988114236343703
 -0.0056170855135327  0.7384018236044865  0.8508889157031715
  0.4951587557634580  0.2533312818935035  0.5004678651431028
  0.5086365492003407  0.2471398830089452  0.8259815836259151
  0.4951587557634580  0.7533312818578771  0.5004678651431028
  0.5086365492003407  0.7471398829733190  0.8259815836259151
  0.0124892235533752  0.2511146045716477  0.4177058376182335
  0.0124892235533752  0.2511146045716477  0.7489608191276337
  0.0124892235533752  0.7511146045360280  0.4177058376182335
  0.0124892235533752  0.7511146045360280  0.7489608191276337
  0.5500292274578501  0.2688167460480735  0.4183150342959081
  0.5500292274578501  0.2688167460480735  0.7483516224499595
  0.5500292274578501  0.7688167460124541  0.4183150342959081
  0.5500292274578501  0.7688167460124541  0.7483516224499595
  0.4558891598849019  0.2457242553785330  0.5833333134607557
  0.4558891598849019  0.7457242703037956  0.5833333134607557
  0.9772940430379000  0.2436265566518550  0.2410534524962711
  0.9713328692699185  0.2471335514409093  0.5833333134607557
  0.9772940430379000  0.2436265566518550  0.9256132340475847
  0.9772940430379000  0.7436265715771181  0.2410534524962711
  0.9713328692699185  0.7471335663661723  0.5833333134607557
  0.9772940430379000  0.7436265715771181  0.9256132340475847
  0.2941108103177069  0.4957242702942031  0.5833333134607557
  0.2941108103177069  0.9957242702585838  0.5833333134607557
  0.7727059569879851  0.4936265715675253  0.2410534524962711
  0.7786671307559666  0.4971335663565797  0.5833333134607557
  0.7727059569879851  0.4936265715675253  0.9256132340475847
  0.7727059569879851  0.9936265715319063  0.2410534524962711
  0.7786671307559666  0.9971335663209605  0.5833333134607557
  0.7727059569879851  0.9936265715319063  0.9256132340475847
  0.1999707576448965  0.0188167490525823  0.4183150342959081
  0.1999707576448965  0.0188167490525823  0.7483516224499595
  0.1999707576448965  0.5188167460028618  0.4183150342959081
  0.1999707576448965  0.5188167460028618  0.7483516224499595
  0.7375107857692724  0.0011146075761563  0.4177058376182335
  0.7375107857692724  0.0011146075761563  0.7489608191276337
  0.7375107857692724  0.5011146045264356  0.4177058376182335
  0.7375107857692724  0.5011146045264356  0.7489608191276337
  0.3822026369052222  0.1210020574541796  0.3480414760924762
  0.4052930500512185  0.0999144015507367  0.6819522736375740
  0.3822026369052222  0.6210020276612013  0.3480414760924762
  0.4052930500512185  0.5999143717577579  0.6819522736375740
  0.8884294623404692  0.1057266964439794  0.3382179306599545
  0.9031641697875933  0.0987020903145456  0.6753772897753939
  0.8884294623404692  0.6057266666510009  0.3382179306599545
  0.9031641697875933  0.5987020605215672  0.6753772897753939
  0.1143426049905934  0.3786314832845112  0.3331335575386091
  0.1010063405496542  0.4002154336917129  0.6563012197939081
  0.1143426049905934  0.8786315726853605  0.3331335575386091
  0.1010063405496542  0.9002155230925629  0.6563012197939081
  0.6081990263136655  0.3866887022062465  0.3201502983550699
  0.5969852128093083  0.3995998012298271  0.6549492374929730
  0.6081990263136655  0.8866887916070962  0.3201502983550699
  0.5969852128093083  0.8995998906306764  0.6549492374929730
  0.1418010034894742  0.1366887021966541  0.3201502983550699
  0.1530148169938311  0.1495998012202348  0.6549492374929730
  0.1418010034894742  0.6366887320279955  0.3201502983550699
  0.1530148169938311  0.6495998310515756  0.6549492374929730
  0.6356573652120159  0.1286314832749188  0.3331335575386091
  0.6489936296529546  0.1502154336821207  0.6563012197939081
  0.6356573652120159  0.6286315131062598  0.3331335575386091
  0.6489936296529546  0.6502154635134622  0.6563012197939081
  0.3677973630976555  0.3710020574637648  0.3480414760924762
  0.3447069499516592  0.3499144015603222  0.6819522736375740
  0.3677973630976555  0.8710020276707936  0.3480414760924762
  0.3447069499516592  0.8499143717673502  0.6819522736375740
  0.8615705376278904  0.3557266964535649  0.3382179306599545
  0.8468358301807662  0.3487020903241309  0.6753772897753939
  0.8615705376278904  0.8557266666605933  0.3382179306599545
  0.8468358301807662  0.8487020605311595  0.6753772897753939
  0.1010063405496542  0.4002154336917129  0.5103654667499548
  0.1143426049905934  0.3786314832845112  0.8335330693829092
  0.1010063405496542  0.9002155230925629  0.5103654667499548
  0.1143426049905933  0.8786315726853605  0.8335330693829092
  0.5969852128093083  0.3995998012298271  0.5117174490508899
  0.6081990263136655  0.3866887022062465  0.8465163285664487
  0.5969852128093083  0.8995998906306764  0.5117174490508899
  0.6081990263136655  0.8866887916070962  0.8465163285664487
  0.4052930500512185  0.0999144015507367  0.4847144129062891
  0.3822026369052222  0.1210020574541796  0.8186251806270236
  0.4052930500512185  0.5999143717577579  0.4847144129062891
  0.3822026369052222  0.6210020276612013  0.8186251806270236
  0.9031641697875933  0.0987020903145456  0.4912893967684688
  0.8884294623404692  0.1057266964439794  0.8284487260595449
  0.9031641697875933  0.5987020605215672  0.4912893967684688
  0.8884294623404692  0.6057266666510009  0.8284487260595449
  0.3447069499516592  0.3499144015603222  0.4847144129062891
  0.3677973630976555  0.3710020574637648  0.8186251806270236
  0.3447069499516592  0.8499143717673502  0.4847144129062891
  0.3677973630976555  0.8710020276707936  0.8186251806270236
  0.8468358301807662  0.3487020903241309  0.4912893967684688
  0.8615705376278904  0.3557266964535649  0.8284487260595449
  0.8468358301807662  0.8487020605311595  0.4912893967684688
  0.8615705376278904  0.8557266666605933  0.8284487260595449
  0.1530148169938311  0.1495998012202348  0.5117174490508899
  0.1418010034894742  0.1366887021966541  0.8465163285664487
  0.1530148169938311  0.6495998310515756  0.5117174490508899
  0.1418010034894742  0.6366887320279955  0.8465163285664487
  0.6489936296529546  0.1502154336821207  0.5103654667499548
  0.6356573652120159  0.1286314832749188  0.8335330693829092
  0.6489936296529546  0.6502154635134622  0.5103654667499548
  0.6356573652120159  0.6286315131062598  0.8335330693829092
 
  0.00000000E+00  0.00000000E+00  0.00000000E+00
  0.00000000E+00  0.00000000E+00  0.00000000E+00
  0.00000000E+00  0.00000000E+00  0.00000000E+00
  0.00000000E+00  0.00000000E+00  0.00000000E+00
  0.00000000E+00  0.00000000E+00  0.00000000E+00
  0.00000000E+00  0.00000000E+00  0.00000000E+00
  0.00000000E+00  0.00000000E+00  0.00000000E+00
  0.00000000E+00  0.00000000E+00  0.00000000E+00
  0.00000000E+00  0.00000000E+00  0.00000000E+00
  0.00000000E+00  0.00000000E+00  0.00000000E+00
  0.00000000E+00  0.00000000E+00  0.00000000E+00
  0.00000000E+00  0.00000000E+00  0.00000000E+00
  0.00000000E+00  0.00000000E+00  0.00000000E+00
  0.00000000E+00  0.00000000E+00  0.00000000E+00
  0.00000000E+00  0.00000000E+00  0.00000000E+00
  0.00000000E+00  0.00000000E+00  0.00000000E+00
  0.00000000E+00  0.00000000E+00  0.00000000E+00
  0.00000000E+00  0.00000000E+00  0.00000000E+00
  0.00000000E+00  0.00000000E+00  0.00000000E+00
  0.00000000E+00  0.00000000E+00  0.00000000E+00
  0.00000000E+00  0.00000000E+00  0.00000000E+00
  0.00000000E+00  0.00000000E+00  0.00000000E+00
  0.00000000E+00  0.00000000E+00  0.00000000E+00
  0.00000000E+00  0.00000000E+00  0.00000000E+00
  0.00000000E+00  0.00000000E+00  0.00000000E+00
  0.00000000E+00  0.00000000E+00  0.00000000E+00
  0.00000000E+00  0.00000000E+00  0.00000000E+00
  0.00000000E+00  0.00000000E+00  0.00000000E+00
  0.00000000E+00  0.00000000E+00  0.00000000E+00
  0.00000000E+00  0.00000000E+00  0.00000000E+00
  0.00000000E+00  0.00000000E+00  0.00000000E+00
  0.00000000E+00  0.00000000E+00  0.00000000E+00
  0.00000000E+00  0.00000000E+00  0.00000000E+00
  0.00000000E+00  0.00000000E+00  0.00000000E+00
  0.00000000E+00  0.00000000E+00  0.00000000E+00
  0.00000000E+00  0.00000000E+00  0.00000000E+00
  0.00000000E+00  0.00000000E+00  0.00000000E+00
  0.00000000E+00  0.00000000E+00  0.00000000E+00
  0.00000000E+00  0.00000000E+00  0.00000000E+00
  0.00000000E+00  0.00000000E+00  0.00000000E+00
  0.00000000E+00  0.00000000E+00  0.00000000E+00
  0.00000000E+00  0.00000000E+00  0.00000000E+00
  0.00000000E+00  0.00000000E+00  0.00000000E+00
  0.00000000E+00  0.00000000E+00  0.00000000E+00
  0.00000000E+00  0.00000000E+00  0.00000000E+00
  0.00000000E+00  0.00000000E+00  0.00000000E+00
  0.00000000E+00  0.00000000E+00  0.00000000E+00
  0.00000000E+00  0.00000000E+00  0.00000000E+00
  0.00000000E+00  0.00000000E+00  0.00000000E+00
  0.00000000E+00  0.00000000E+00  0.00000000E+00
  0.00000000E+00  0.00000000E+00  0.00000000E+00
  0.00000000E+00  0.00000000E+00  0.00000000E+00
  0.00000000E+00  0.00000000E+00  0.00000000E+00
  0.00000000E+00  0.00000000E+00  0.00000000E+00
  0.00000000E+00  0.00000000E+00  0.00000000E+00
  0.00000000E+00  0.00000000E+00  0.00000000E+00
  0.00000000E+00  0.00000000E+00  0.00000000E+00
  0.00000000E+00  0.00000000E+00  0.00000000E+00
  0.00000000E+00  0.00000000E+00  0.00000000E+00
  0.00000000E+00  0.00000000E+00  0.00000000E+00
  0.00000000E+00  0.00000000E+00  0.00000000E+00
  0.00000000E+00  0.00000000E+00  0.00000000E+00
  0.00000000E+00  0.00000000E+00  0.00000000E+00
  0.00000000E+00  0.00000000E+00  0.00000000E+00
  0.00000000E+00  0.00000000E+00  0.00000000E+00
  0.00000000E+00  0.00000000E+00  0.00000000E+00
  0.00000000E+00  0.00000000E+00  0.00000000E+00
  0.00000000E+00  0.00000000E+00  0.00000000E+00
  0.00000000E+00  0.00000000E+00  0.00000000E+00
  0.00000000E+00  0.00000000E+00  0.00000000E+00
  0.00000000E+00  0.00000000E+00  0.00000000E+00
  0.00000000E+00  0.00000000E+00  0.00000000E+00
  0.00000000E+00  0.00000000E+00  0.00000000E+00
  0.00000000E+00  0.00000000E+00  0.00000000E+00
  0.00000000E+00  0.00000000E+00  0.00000000E+00
  0.00000000E+00  0.00000000E+00  0.00000000E+00
  0.00000000E+00  0.00000000E+00  0.00000000E+00
  0.00000000E+00  0.00000000E+00  0.00000000E+00
  0.00000000E+00  0.00000000E+00  0.00000000E+00
  0.00000000E+00  0.00000000E+00  0.00000000E+00
  0.00000000E+00  0.00000000E+00  0.00000000E+00
  0.00000000E+00  0.00000000E+00  0.00000000E+00
  0.00000000E+00  0.00000000E+00  0.00000000E+00
  0.00000000E+00  0.00000000E+00  0.00000000E+00
  0.00000000E+00  0.00000000E+00  0.00000000E+00
  0.00000000E+00  0.00000000E+00  0.00000000E+00
  0.00000000E+00  0.00000000E+00  0.00000000E+00
  0.00000000E+00  0.00000000E+00  0.00000000E+00
  0.00000000E+00  0.00000000E+00  0.00000000E+00
  0.00000000E+00  0.00000000E+00  0.00000000E+00
  0.00000000E+00  0.00000000E+00  0.00000000E+00
  0.00000000E+00  0.00000000E+00  0.00000000E+00
  0.00000000E+00  0.00000000E+00  0.00000000E+00
  0.00000000E+00  0.00000000E+00  0.00000000E+00
  0.00000000E+00  0.00000000E+00  0.00000000E+00
  0.00000000E+00  0.00000000E+00  0.00000000E+00
  0.00000000E+00  0.00000000E+00  0.00000000E+00
  0.00000000E+00  0.00000000E+00  0.00000000E+00
  0.00000000E+00  0.00000000E+00  0.00000000E+00
  0.00000000E+00  0.00000000E+00  0.00000000E+00
  0.00000000E+00  0.00000000E+00  0.00000000E+00
  0.00000000E+00  0.00000000E+00  0.00000000E+00
  0.00000000E+00  0.00000000E+00  0.00000000E+00
  0.00000000E+00  0.00000000E+00  0.00000000E+00
  0.00000000E+00  0.00000000E+00  0.00000000E+00
  0.00000000E+00  0.00000000E+00  0.00000000E+00
  0.00000000E+00  0.00000000E+00  0.00000000E+00
  0.00000000E+00  0.00000000E+00  0.00000000E+00
  0.00000000E+00  0.00000000E+00  0.00000000E+00
  0.00000000E+00  0.00000000E+00  0.00000000E+00
  0.00000000E+00  0.00000000E+00  0.00000000E+00
  0.00000000E+00  0.00000000E+00  0.00000000E+00
  0.00000000E+00  0.00000000E+00  0.00000000E+00
  0.00000000E+00  0.00000000E+00  0.00000000E+00
  0.00000000E+00  0.00000000E+00  0.00000000E+00
  0.00000000E+00  0.00000000E+00  0.00000000E+00
  0.00000000E+00  0.00000000E+00  0.00000000E+00
  0.00000000E+00  0.00000000E+00  0.00000000E+00
  0.00000000E+00  0.00000000E+00  0.00000000E+00
  0.00000000E+00  0.00000000E+00  0.00000000E+00
  0.00000000E+00  0.00000000E+00  0.00000000E+00
  0.00000000E+00  0.00000000E+00  0.00000000E+00
  0.00000000E+00  0.00000000E+00  0.00000000E+00
  0.00000000E+00  0.00000000E+00  0.00000000E+00
  0.00000000E+00  0.00000000E+00  0.00000000E+00
  0.00000000E+00  0.00000000E+00  0.00000000E+00
  0.00000000E+00  0.00000000E+00  0.00000000E+00
  0.00000000E+00  0.00000000E+00  0.00000000E+00
  0.00000000E+00  0.00000000E+00  0.00000000E+00
  0.00000000E+00  0.00000000E+00  0.00000000E+00
  0.00000000E+00  0.00000000E+00  0.00000000E+00
  0.00000000E+00  0.00000000E+00  0.00000000E+00
  0.00000000E+00  0.00000000E+00  0.00000000E+00
  0.00000000E+00  0.00000000E+00  0.00000000E+00
  0.00000000E+00  0.00000000E+00  0.00000000E+00
  0.00000000E+00  0.00000000E+00  0.00000000E+00
  0.00000000E+00  0.00000000E+00  0.00000000E+00
  0.00000000E+00  0.00000000E+00  0.00000000E+00
  0.00000000E+00  0.00000000E+00  0.00000000E+00
  0.00000000E+00  0.00000000E+00  0.00000000E+00
  0.00000000E+00  0.00000000E+00  0.00000000E+00
  0.00000000E+00  0.00000000E+00  0.00000000E+00
  0.00000000E+00  0.00000000E+00  0.00000000E+00
  0.00000000E+00  0.00000000E+00  0.00000000E+00
  0.00000000E+00  0.00000000E+00  0.00000000E+00
  0.00000000E+00  0.00000000E+00  0.00000000E+00
  0.00000000E+00  0.00000000E+00  0.00000000E+00
  0.00000000E+00  0.00000000E+00  0.00000000E+00
  0.00000000E+00  0.00000000E+00  0.00000000E+00
  0.00000000E+00  0.00000000E+00  0.00000000E+00
  0.00000000E+00  0.00000000E+00  0.00000000E+00
  0.00000000E+00  0.00000000E+00  0.00000000E+00
