This file is generated by VASPKIT code  
   1.00000000000000     
    17.3823947905999994    0.0000000000000000    0.0000000000000000
     0.0000000000000000   18.2475891113000017    0.0000000000000000
     0.0000000000000000    0.0000000000000000   40.0000000000000000
   Cs   Pb   I 
    24    24    72
Direct
  0.4692039792183644  0.4628879185372499  0.3938902621157950
  0.4749243126098291  0.4697537615272368  0.7004711823555853
  0.4692039792183644  0.9628879185564350  0.3938902621157950
  0.4749243126098291  0.9697537615464216  0.7004711823555853
  0.0021405099385697  0.4699621654086658  0.3940075001485261
  0.0021405099385697  0.9699621654278504  0.3940075001485261
  0.0317981065613925  0.0342946291078774  0.5575637466072978
  0.0317981065613925  0.5342946253457378  0.5575637466072978
  0.4950990407029597  0.0300542028682938  0.2459434876709763
  0.5008394860543071  0.0325989235033779  0.5537735382480552
  0.4950990407029597  0.5300541991061548  0.2459434876709763
  0.5008394860543071  0.5325989197412392  0.5537735382480552
  0.2549009742000488  0.2800541990965624  0.2459434876709763
  0.2491605288487017  0.2825989197316467  0.5537735382480552
  0.2549009742000488  0.7800541991157400  0.2459434876709763
  0.2491605288487017  0.7825989197508244  0.5537735382480552
  0.7182018857900626  0.2842946253361460  0.5575637466072978
  0.7182018857900626  0.7842946253553230  0.5575637466072978
  0.2807960207845062  0.2128879185276646  0.3938902621157950
  0.2750756873930414  0.2197537615176517  0.7004711823555853
  0.2807960207845062  0.7128879185468426  0.3938902621157950
  0.2750756873930414  0.7197537615368292  0.7004711823555853
  0.7478594900873151  0.2199621653990805  0.3940075001485261
  0.7478594900873151  0.7199621654182581  0.3940075001485261
  0.2444620105063169 -0.0027719853221155  0.3092474475596143
  0.2432509998583980  0.0032773325370135  0.6369148432918641
  0.2444620105063169  0.4972280146970620  0.3092474475596143
  0.2432509998583980  0.5032773325561912  0.6369148432918641
  0.7473817337476532  0.0000113822782655  0.3238215508605530
  0.7674995737638544  0.0029226386484007  0.6261957852391513
  0.7473817337476532  0.5000113822974431  0.3238215508605530
  0.7674995737638544  0.5029226386675782  0.6261957852391513
  0.0026182662552248  0.2500113822878577  0.3238215508605530
 -0.0174995737609766  0.2529226386579933  0.6261957852391513
  0.0026182662552248  0.7500113822522314  0.3238215508605530
 -0.0174995737609766  0.7529226386223664  0.6261957852391513
  0.5055379894965608  0.2472280146874767  0.3092474475596143
  0.5067490001444794  0.2532773325466059  0.6369148432918641
  0.5055379894965608  0.7472280146518502  0.3092474475596143
  0.5067490001444794  0.7532773325109793  0.6369148432918641
  0.2476575818995100  0.0003667083734618  0.4742673174849892
  0.2476575818995100  0.5003667083926391  0.4742673174849892
  0.7521889273737591  0.0007177207826448  0.4732678314874507
  0.7521889273737591  0.5007177208018223  0.4732678314874507
 -0.0021889273708812  0.2507177207922371  0.4732678314874507
 -0.0021889273708812  0.7507177207566105  0.4732678314874507
  0.5023424181033678  0.2503667083830542  0.4742673174849892
  0.5023424181033678  0.7503667083474274  0.4742673174849892
  0.0589072661215976  0.2594829793583652  0.3962087098457239
  0.0589072661215976  0.7594829793227457  0.3962087098457239
  0.5259675016117054  0.2539760196939039  0.3943836299330069
  0.4964299548353202  0.2580052601013589  0.7145933695890622
  0.5259675016117054  0.7539760196582840  0.3943836299330069
  0.4964299548353202  0.7580052600657393  0.7145933695890622
  0.4706537068876723  0.2417295788251645  0.2335496499484680
  0.4770972175396854  0.2493097551409378  0.5534749355013426
  0.4706537068876723  0.7417295788443494  0.2335496499484680
  0.4770972175396854  0.7493097551601225  0.5534749355013426
  0.9428699851570346  0.2366727582884844  0.5516403376873094
  0.9428699851570346  0.7366727583076694  0.5516403376873094
  0.2793462931151983  0.4917295788347569  0.2335496499484680
  0.2729027824631852  0.4993097551505300  0.5534749355013426
  0.2793462931151983  0.9917295787991376  0.2335496499484680
  0.2729027824631852 -0.0006902448850893  0.5534749355013426
  0.8071300148688505  0.4866727582980765  0.5516403376873094
  0.8071300148688505  0.9866727582624576  0.5516403376873094
  0.2240324834910415  0.0039760226984125  0.3943836299330069
  0.2535700302674267  0.0080052631058675  0.7145933695890622
  0.2240324834910415  0.5039760196486917  0.3943836299330069
  0.2535700302674267  0.5080052600561470  0.7145933695890622
  0.6910927432010496  0.0094829823628738  0.3962087098457239
  0.6910927432010496  0.5094829793131533  0.3962087098457239
  0.3965328921908239  0.1027877377098806  0.3247472122404090
  0.3970202811446403  0.1059439996297548  0.6362325802695508
  0.3965328921908239  0.6027877079169016  0.3247472122404090
  0.3970202811446403  0.6059439698367759  0.6362325802695508
  0.8941333729303147  0.1067768232665368  0.3351576029541817
  0.9135510359457253  0.0926063892094648  0.6461354936871326
  0.8941333729303147  0.6067767934735581  0.3351576029541817
  0.9135510359457253  0.5926063594164861  0.6461354936871326
  0.0950295663864973  0.3919991528691610  0.2981045402593621
  0.1007890794079059  0.3888716927359306  0.6229648147536693
  0.0950295663864973  0.8919991827005020  0.2981045402593621
  0.1007890794079059  0.8888717225672716  0.6229648147536693
  0.6049230506811236  0.3978131416916610  0.3028926314871285
  0.6021513599112999  0.4048087205214175  0.6256961339200207
  0.6049230506811236  0.8978131715230022  0.3028926314871285
  0.6021513599112999  0.9048087503527584  0.6256961339200207
  0.1450769791220156  0.1478131416820688  0.3028926314871285
  0.1478486698918393  0.1548087205118252  0.6256961339200207
  0.1450769791220156  0.6478131715134099  0.3028926314871285
  0.1478486698918393  0.6548087503431661  0.6256961339200207
  0.6549704038161114  0.1419991528595686  0.2981045402593621
  0.6492108907947033  0.1388716927263385  0.6229648147536693
  0.6549704038161114  0.6419991826909097  0.2981045402593621
  0.6492108907947033  0.6388717225576793  0.6229648147536693
  0.3534671078120538  0.3527877377194658  0.3247472122404090
  0.3529797188582374  0.3559439996393400  0.6362325802695508
  0.3534671078120538  0.8527877079264939  0.3247472122404090
  0.3529797188582374  0.8559439698463682  0.6362325802695508
  0.8558666270380448  0.3567768232761221  0.3351576029541817
  0.8364489640226342  0.3426063892190503  0.6461354936871326
  0.8558666270380448  0.8567767934831504  0.3351576029541817
  0.8364489640226342  0.8426063594260784  0.6461354936871326
  0.0956790012137637  0.3984966306058825  0.4871571971381425
  0.0956790012137637  0.8984966604372230  0.4871571971381425
  0.6016048336677950  0.4017840441197239  0.4873572194639144
  0.6016048336677950  0.9017840739510647  0.4873572194639144
  0.4023049480385330  0.1001942052933441  0.4649519552156194
  0.4023049480385330  0.6001941755003656  0.4649519552156194
  0.8989929420444592  0.1046657237695619  0.4561482258861234
  0.8989929420444592  0.6046656939765832  0.4561482258861234
  0.3476950519643447  0.3501942053029292  0.4649519552156194
  0.3476950519643447  0.8501941755099579  0.4649519552156194
  0.8510070579239003  0.3546657237791471  0.4561482258861234
  0.8510070579239003  0.8546656939861755  0.4561482258861234
  0.1483951961353445  0.1517840441101315  0.4873572194639144
  0.1483951961353445  0.6517840739414724  0.4873572194639144
  0.6543209689888451  0.1484966305962903  0.4871571971381425
  0.6543209689888451  0.6484966604276307  0.4871571971381425
 
  0.00000000E+00  0.00000000E+00  0.00000000E+00
  0.00000000E+00  0.00000000E+00  0.00000000E+00
  0.00000000E+00  0.00000000E+00  0.00000000E+00
  0.00000000E+00  0.00000000E+00  0.00000000E+00
  0.00000000E+00  0.00000000E+00  0.00000000E+00
  0.00000000E+00  0.00000000E+00  0.00000000E+00
  0.00000000E+00  0.00000000E+00  0.00000000E+00
  0.00000000E+00  0.00000000E+00  0.00000000E+00
  0.00000000E+00  0.00000000E+00  0.00000000E+00
  0.00000000E+00  0.00000000E+00  0.00000000E+00
  0.00000000E+00  0.00000000E+00  0.00000000E+00
  0.00000000E+00  0.00000000E+00  0.00000000E+00
  0.00000000E+00  0.00000000E+00  0.00000000E+00
  0.00000000E+00  0.00000000E+00  0.00000000E+00
  0.00000000E+00  0.00000000E+00  0.00000000E+00
  0.00000000E+00  0.00000000E+00  0.00000000E+00
  0.00000000E+00  0.00000000E+00  0.00000000E+00
  0.00000000E+00  0.00000000E+00  0.00000000E+00
  0.00000000E+00  0.00000000E+00  0.00000000E+00
  0.00000000E+00  0.00000000E+00  0.00000000E+00
  0.00000000E+00  0.00000000E+00  0.00000000E+00
  0.00000000E+00  0.00000000E+00  0.00000000E+00
  0.00000000E+00  0.00000000E+00  0.00000000E+00
  0.00000000E+00  0.00000000E+00  0.00000000E+00
  0.00000000E+00  0.00000000E+00  0.00000000E+00
  0.00000000E+00  0.00000000E+00  0.00000000E+00
  0.00000000E+00  0.00000000E+00  0.00000000E+00
  0.00000000E+00  0.00000000E+00  0.00000000E+00
  0.00000000E+00  0.00000000E+00  0.00000000E+00
  0.00000000E+00  0.00000000E+00  0.00000000E+00
  0.00000000E+00  0.00000000E+00  0.00000000E+00
  0.00000000E+00  0.00000000E+00  0.00000000E+00
  0.00000000E+00  0.00000000E+00  0.00000000E+00
  0.00000000E+00  0.00000000E+00  0.00000000E+00
  0.00000000E+00  0.00000000E+00  0.00000000E+00
  0.00000000E+00  0.00000000E+00  0.00000000E+00
  0.00000000E+00  0.00000000E+00  0.00000000E+00
  0.00000000E+00  0.00000000E+00  0.00000000E+00
  0.00000000E+00  0.00000000E+00  0.00000000E+00
  0.00000000E+00  0.00000000E+00  0.00000000E+00
  0.00000000E+00  0.00000000E+00  0.00000000E+00
  0.00000000E+00  0.00000000E+00  0.00000000E+00
  0.00000000E+00  0.00000000E+00  0.00000000E+00
  0.00000000E+00  0.00000000E+00  0.00000000E+00
  0.00000000E+00  0.00000000E+00  0.00000000E+00
  0.00000000E+00  0.00000000E+00  0.00000000E+00
  0.00000000E+00  0.00000000E+00  0.00000000E+00
  0.00000000E+00  0.00000000E+00  0.00000000E+00
  0.00000000E+00  0.00000000E+00  0.00000000E+00
  0.00000000E+00  0.00000000E+00  0.00000000E+00
  0.00000000E+00  0.00000000E+00  0.00000000E+00
  0.00000000E+00  0.00000000E+00  0.00000000E+00
  0.00000000E+00  0.00000000E+00  0.00000000E+00
  0.00000000E+00  0.00000000E+00  0.00000000E+00
  0.00000000E+00  0.00000000E+00  0.00000000E+00
  0.00000000E+00  0.00000000E+00  0.00000000E+00
  0.00000000E+00  0.00000000E+00  0.00000000E+00
  0.00000000E+00  0.00000000E+00  0.00000000E+00
  0.00000000E+00  0.00000000E+00  0.00000000E+00
  0.00000000E+00  0.00000000E+00  0.00000000E+00
  0.00000000E+00  0.00000000E+00  0.00000000E+00
  0.00000000E+00  0.00000000E+00  0.00000000E+00
  0.00000000E+00  0.00000000E+00  0.00000000E+00
  0.00000000E+00  0.00000000E+00  0.00000000E+00
  0.00000000E+00  0.00000000E+00  0.00000000E+00
  0.00000000E+00  0.00000000E+00  0.00000000E+00
  0.00000000E+00  0.00000000E+00  0.00000000E+00
  0.00000000E+00  0.00000000E+00  0.00000000E+00
  0.00000000E+00  0.00000000E+00  0.00000000E+00
  0.00000000E+00  0.00000000E+00  0.00000000E+00
  0.00000000E+00  0.00000000E+00  0.00000000E+00
  0.00000000E+00  0.00000000E+00  0.00000000E+00
  0.00000000E+00  0.00000000E+00  0.00000000E+00
  0.00000000E+00  0.00000000E+00  0.00000000E+00
  0.00000000E+00  0.00000000E+00  0.00000000E+00
  0.00000000E+00  0.00000000E+00  0.00000000E+00
  0.00000000E+00  0.00000000E+00  0.00000000E+00
  0.00000000E+00  0.00000000E+00  0.00000000E+00
  0.00000000E+00  0.00000000E+00  0.00000000E+00
  0.00000000E+00  0.00000000E+00  0.00000000E+00
  0.00000000E+00  0.00000000E+00  0.00000000E+00
  0.00000000E+00  0.00000000E+00  0.00000000E+00
  0.00000000E+00  0.00000000E+00  0.00000000E+00
  0.00000000E+00  0.00000000E+00  0.00000000E+00
  0.00000000E+00  0.00000000E+00  0.00000000E+00
  0.00000000E+00  0.00000000E+00  0.00000000E+00
  0.00000000E+00  0.00000000E+00  0.00000000E+00
  0.00000000E+00  0.00000000E+00  0.00000000E+00
  0.00000000E+00  0.00000000E+00  0.00000000E+00
  0.00000000E+00  0.00000000E+00  0.00000000E+00
  0.00000000E+00  0.00000000E+00  0.00000000E+00
  0.00000000E+00  0.00000000E+00  0.00000000E+00
  0.00000000E+00  0.00000000E+00  0.00000000E+00
  0.00000000E+00  0.00000000E+00  0.00000000E+00
  0.00000000E+00  0.00000000E+00  0.00000000E+00
  0.00000000E+00  0.00000000E+00  0.00000000E+00
  0.00000000E+00  0.00000000E+00  0.00000000E+00
  0.00000000E+00  0.00000000E+00  0.00000000E+00
  0.00000000E+00  0.00000000E+00  0.00000000E+00
  0.00000000E+00  0.00000000E+00  0.00000000E+00
  0.00000000E+00  0.00000000E+00  0.00000000E+00
  0.00000000E+00  0.00000000E+00  0.00000000E+00
  0.00000000E+00  0.00000000E+00  0.00000000E+00
  0.00000000E+00  0.00000000E+00  0.00000000E+00
  0.00000000E+00  0.00000000E+00  0.00000000E+00
  0.00000000E+00  0.00000000E+00  0.00000000E+00
  0.00000000E+00  0.00000000E+00  0.00000000E+00
  0.00000000E+00  0.00000000E+00  0.00000000E+00
  0.00000000E+00  0.00000000E+00  0.00000000E+00
  0.00000000E+00  0.00000000E+00  0.00000000E+00
  0.00000000E+00  0.00000000E+00  0.00000000E+00
  0.00000000E+00  0.00000000E+00  0.00000000E+00
  0.00000000E+00  0.00000000E+00  0.00000000E+00
  0.00000000E+00  0.00000000E+00  0.00000000E+00
  0.00000000E+00  0.00000000E+00  0.00000000E+00
  0.00000000E+00  0.00000000E+00  0.00000000E+00
  0.00000000E+00  0.00000000E+00  0.00000000E+00
  0.00000000E+00  0.00000000E+00  0.00000000E+00
  0.00000000E+00  0.00000000E+00  0.00000000E+00
  0.00000000E+00  0.00000000E+00  0.00000000E+00
