This file is generated by VASPKIT code  
   1.00000000000000     
    12.6406764983999995    0.0000000000000000    0.0000000000000000
     0.0000000000000000   18.2475891113000017    0.0000000000000000
     0.0000000000000000    0.0000000000000000   50.0000000000000000
   Cs   Pb   I 
    20    22    72
Direct
  0.2260613519959204  0.4756861078416535  0.7056004871711884
  0.2271994966595766  0.9969911073133050  0.7117057884290615
  0.1953529320029130  0.4908347692593358  0.3444264317867866
  0.2236237337074698  0.9882097097757133  0.3421068813233470
  0.2492982656438154  0.4671394308695281  0.5160286185020754
  0.2421190483390378  0.9615291070733073  0.5163733232972316
  0.7578810112780200  0.0384708389305250  0.5265703331427705
  0.7507017939732427  0.5328605393018748  0.5269150379379267
  0.7763763259095874  0.0117902362281186  0.7008367751166558
  0.8046471276141449  0.5091652009120657  0.6985172246532160
  0.7728005629574816  0.0030088386905272  0.3312378084109424
  0.7739387076211379  0.5243138623297475  0.3373431096688234
  0.7519941784381330  0.2840843580922303  0.6099777082077766
  0.7572312668649186  0.7815310431634961  0.6046158747393954
  0.7568970597809380  0.2831861121925604  0.4289844968279826
  0.7621773376496114  0.7691062433676722  0.4285363651721488
  0.2378227219674465  0.2308937417098075  0.6144072912678534
  0.2431029998361205  0.7168138877909981  0.6139591596120195
  0.2427687927521399  0.2184689419139837  0.4383277817206020
  0.2480058811789248  0.7159156418913275  0.4329659482522199
  0.0039748052277253 -0.0011140676169071  0.6089474779585426
  0.0028228923544346  0.4969208139140898  0.6099953743567864
  0.9960251947722747  0.0011140676169068  0.4339961486814597
  0.9971771076455659  0.5030791861242653  0.4329482522832175
 -0.0005477371221891  0.2510855181255577  0.5218811584585225
  0.0005477371221892  0.7489144818580001  0.5210624383814818
  0.9975604617210240  0.2389218644626674  0.7045717226306806
 -0.0019170486726318  0.7501294256243872  0.7003400046667477
  0.0019170486726320  0.2498705743591706  0.3426037113732521
  0.0024395382789758  0.7610781355208908  0.3383719934093191
  0.5027884286418107  0.0017721956534423  0.6036144437687858
  0.4954075585800326  0.4925407917456667  0.6117765547063986
  0.5119328674695185  0.4376157736191881  0.2679367143161687
  0.4880671324988337  0.5623842264191665  0.7750069123238345
  0.4972115713265415  0.9982278043465570  0.4393291828712189
  0.5045924413883194  0.5074592082926885  0.4311670719336054
  0.5007733779172409  0.2559970416511200  0.5206046652321519
  0.4992266220511111  0.7440029583324387  0.5223389316078524
  0.4954298506365012  0.2103818004356839  0.6985060023292248
  0.4972859996421493  0.7535425640684954  0.6897467774283811
  0.5027140003262029  0.2464574359150623  0.3531969386116190
  0.5045701493318520  0.7896181995478737  0.3444377137107759
  0.2499978311096514  0.2577079257610879  0.5353674636480600
  0.2505701798539899  0.7543882270290361  0.5364094939456047
  0.2526260869219499  0.2520089576244646  0.7055232072545166
  0.2497518844152170  0.7699452970343285  0.6993871460238760
  0.2489045360935712  0.2664361429932170  0.3580405477868301
  0.2521077114727663  0.7672007509467895  0.3532275603022274
  0.7478923481442913  0.2327992341306897  0.6897160961377676
  0.7510955235234871  0.7335638570451449  0.6849031086531651
  0.7502481752018408  0.2300546880431510  0.3435565402161248
  0.7473739726951074  0.7479910424138977  0.3374204789854844
  0.7494298797630676  0.2456117580484504  0.5065341625143992
  0.7500022285073987  0.7422920742772744  0.5075761928119439
  0.7484158462391055  0.5006981839929431  0.6212466759345016
  0.7492651772573647  0.9987350818867031  0.6210908908987172
  0.7317161385852005  0.4700261617825553  0.2595045206424509
  0.6040452699832525  0.5125290493382719  0.8200228746808211
  0.7508067125154839  0.5017288423619839  0.4486275058041458
  0.7493948719056712  0.9888294545014988  0.4506629085380530
  0.2506051877113861  0.0111706677447921  0.5922807479219510
  0.2491933471015742  0.4982711576215740  0.5943161506558580
  0.3959547896338053  0.4874709506452863  0.2229207519591814
  0.2682839210318582  0.5299738382010032  0.7834390761975457
  0.2507348823596927  0.0012650403595878  0.4218527953412763
  0.2515842133779533  0.4993018159906150  0.4216970103054919
  0.0399487189618784  0.1006099931036993  0.6594028435512448
  0.0450241319107582  0.6024228911139436  0.6588022486997277
  0.0247937442339013  0.1182698970234770  0.3074348985652977
  0.0198488006002221  0.6287411625850876  0.3033549443928688
  0.0368040019516915  0.1026239970100850  0.4872140332150621
  0.0416078580824204  0.6059103270839286  0.4855610102667384
  0.9583921009071209  0.3940897027117858  0.5573826461732564
  0.9631959570378497  0.8973759731613167  0.5557296232249335
  0.9801511583893188  0.3712588672106270  0.7395886524471360
  0.9752062147556397  0.8817300731479246  0.7355086982747070
  0.9549758270787904  0.3975771386817708  0.3841414375602746
  0.9600512400276627  0.8993899770677025  0.3835408427087579
  0.9606906200872263  0.1516312088705139  0.5744264710490764
  0.9654498965082033  0.6452959229484777  0.5727738508161301
  0.9888150739783453  0.1193886805973702  0.7451389955815525
  0.9956698274101822  0.6335998186915014  0.7418718621247860
  0.9797132470003466  0.1450433114217790  0.3995245469107593
  0.9807488958098469  0.6394687048169487  0.3936511375965709
  0.0192510631796941  0.3605312653544534  0.6492924890434327
  0.0202867119891938  0.8549567183739347  0.6434190797292441
  0.0043301315793587  0.3664001514799009  0.3010718241352091
  0.0111848850111960  0.8806113491983437  0.2978046906784431
  0.0345500624813372  0.3547040472229241  0.4701698056238650
  0.0393093389023147  0.8483688209252006  0.4685171853909263
  0.5404929824855407  0.3963073042360789  0.5576456408634800
  0.5435966768121054  0.9007711453361601  0.5536466837700709
  0.5332014598250099  0.4555101371883462  0.7325852212393980
  0.5274458078191762  0.8774755611438153  0.7376332548140373
  0.5545776133984228  0.3999161622849588  0.3809906212106119
  0.5665145472605543  0.9006969291704702  0.3863100170740820
  0.4334854527869104  0.0993030410009313  0.6566336691859205
  0.4454223866490420  0.6000838675107556  0.6619530650493916
  0.4725541922282884  0.1225244090275861  0.3053103420259674
  0.4667985402224542  0.5444898926073682  0.3103583756006062
  0.4564033232353586  0.0992288248352421  0.4892969726699242
  0.4595070175619227  0.6036927255596356  0.4852980155765152
  0.4754503658616639  0.3526727802767439  0.6472165914118652
  0.4802428237800677  0.8468369308393404  0.6386933824494849
  0.4817814706678916  0.2821144083629878  0.2853164951630571
  0.4882494417183778  0.9137932466006353  0.3050421485176747
  0.4628241178753698  0.3532029943954323  0.4691776477154610
  0.4539827448517297  0.8488300486396289  0.4690718519793333
  0.5460172551957355  0.1511699811560860  0.5738718044606687
  0.5371758821720944  0.6467969757759696  0.5737660087245415
  0.5117505583290866  0.0862067831950790  0.7379015377423213
  0.5182185293795724  0.7178855618084136  0.7576271910969379
  0.5197571762673968  0.1531630989563742  0.4042502441905186
  0.5245496341857997  0.6473271898946587  0.3957270352281386
 
  0.00000000E+00  0.00000000E+00  0.00000000E+00
  0.00000000E+00  0.00000000E+00  0.00000000E+00
  0.00000000E+00  0.00000000E+00  0.00000000E+00
  0.00000000E+00  0.00000000E+00  0.00000000E+00
  0.00000000E+00  0.00000000E+00  0.00000000E+00
  0.00000000E+00  0.00000000E+00  0.00000000E+00
  0.00000000E+00  0.00000000E+00  0.00000000E+00
  0.00000000E+00  0.00000000E+00  0.00000000E+00
  0.00000000E+00  0.00000000E+00  0.00000000E+00
  0.00000000E+00  0.00000000E+00  0.00000000E+00
  0.00000000E+00  0.00000000E+00  0.00000000E+00
  0.00000000E+00  0.00000000E+00  0.00000000E+00
  0.00000000E+00  0.00000000E+00  0.00000000E+00
  0.00000000E+00  0.00000000E+00  0.00000000E+00
  0.00000000E+00  0.00000000E+00  0.00000000E+00
  0.00000000E+00  0.00000000E+00  0.00000000E+00
  0.00000000E+00  0.00000000E+00  0.00000000E+00
  0.00000000E+00  0.00000000E+00  0.00000000E+00
  0.00000000E+00  0.00000000E+00  0.00000000E+00
  0.00000000E+00  0.00000000E+00  0.00000000E+00
  0.00000000E+00  0.00000000E+00  0.00000000E+00
  0.00000000E+00  0.00000000E+00  0.00000000E+00
  0.00000000E+00  0.00000000E+00  0.00000000E+00
  0.00000000E+00  0.00000000E+00  0.00000000E+00
  0.00000000E+00  0.00000000E+00  0.00000000E+00
  0.00000000E+00  0.00000000E+00  0.00000000E+00
  0.00000000E+00  0.00000000E+00  0.00000000E+00
  0.00000000E+00  0.00000000E+00  0.00000000E+00
  0.00000000E+00  0.00000000E+00  0.00000000E+00
  0.00000000E+00  0.00000000E+00  0.00000000E+00
  0.00000000E+00  0.00000000E+00  0.00000000E+00
  0.00000000E+00  0.00000000E+00  0.00000000E+00
  0.00000000E+00  0.00000000E+00  0.00000000E+00
  0.00000000E+00  0.00000000E+00  0.00000000E+00
  0.00000000E+00  0.00000000E+00  0.00000000E+00
  0.00000000E+00  0.00000000E+00  0.00000000E+00
  0.00000000E+00  0.00000000E+00  0.00000000E+00
  0.00000000E+00  0.00000000E+00  0.00000000E+00
  0.00000000E+00  0.00000000E+00  0.00000000E+00
  0.00000000E+00  0.00000000E+00  0.00000000E+00
  0.00000000E+00  0.00000000E+00  0.00000000E+00
  0.00000000E+00  0.00000000E+00  0.00000000E+00
  0.00000000E+00  0.00000000E+00  0.00000000E+00
  0.00000000E+00  0.00000000E+00  0.00000000E+00
  0.00000000E+00  0.00000000E+00  0.00000000E+00
  0.00000000E+00  0.00000000E+00  0.00000000E+00
  0.00000000E+00  0.00000000E+00  0.00000000E+00
  0.00000000E+00  0.00000000E+00  0.00000000E+00
  0.00000000E+00  0.00000000E+00  0.00000000E+00
  0.00000000E+00  0.00000000E+00  0.00000000E+00
  0.00000000E+00  0.00000000E+00  0.00000000E+00
  0.00000000E+00  0.00000000E+00  0.00000000E+00
  0.00000000E+00  0.00000000E+00  0.00000000E+00
  0.00000000E+00  0.00000000E+00  0.00000000E+00
  0.00000000E+00  0.00000000E+00  0.00000000E+00
  0.00000000E+00  0.00000000E+00  0.00000000E+00
  0.00000000E+00  0.00000000E+00  0.00000000E+00
  0.00000000E+00  0.00000000E+00  0.00000000E+00
  0.00000000E+00  0.00000000E+00  0.00000000E+00
  0.00000000E+00  0.00000000E+00  0.00000000E+00
  0.00000000E+00  0.00000000E+00  0.00000000E+00
  0.00000000E+00  0.00000000E+00  0.00000000E+00
  0.00000000E+00  0.00000000E+00  0.00000000E+00
  0.00000000E+00  0.00000000E+00  0.00000000E+00
  0.00000000E+00  0.00000000E+00  0.00000000E+00
  0.00000000E+00  0.00000000E+00  0.00000000E+00
  0.00000000E+00  0.00000000E+00  0.00000000E+00
  0.00000000E+00  0.00000000E+00  0.00000000E+00
  0.00000000E+00  0.00000000E+00  0.00000000E+00
  0.00000000E+00  0.00000000E+00  0.00000000E+00
  0.00000000E+00  0.00000000E+00  0.00000000E+00
  0.00000000E+00  0.00000000E+00  0.00000000E+00
  0.00000000E+00  0.00000000E+00  0.00000000E+00
  0.00000000E+00  0.00000000E+00  0.00000000E+00
  0.00000000E+00  0.00000000E+00  0.00000000E+00
  0.00000000E+00  0.00000000E+00  0.00000000E+00
  0.00000000E+00  0.00000000E+00  0.00000000E+00
  0.00000000E+00  0.00000000E+00  0.00000000E+00
  0.00000000E+00  0.00000000E+00  0.00000000E+00
  0.00000000E+00  0.00000000E+00  0.00000000E+00
  0.00000000E+00  0.00000000E+00  0.00000000E+00
  0.00000000E+00  0.00000000E+00  0.00000000E+00
  0.00000000E+00  0.00000000E+00  0.00000000E+00
  0.00000000E+00  0.00000000E+00  0.00000000E+00
  0.00000000E+00  0.00000000E+00  0.00000000E+00
  0.00000000E+00  0.00000000E+00  0.00000000E+00
  0.00000000E+00  0.00000000E+00  0.00000000E+00
  0.00000000E+00  0.00000000E+00  0.00000000E+00
  0.00000000E+00  0.00000000E+00  0.00000000E+00
  0.00000000E+00  0.00000000E+00  0.00000000E+00
  0.00000000E+00  0.00000000E+00  0.00000000E+00
  0.00000000E+00  0.00000000E+00  0.00000000E+00
  0.00000000E+00  0.00000000E+00  0.00000000E+00
  0.00000000E+00  0.00000000E+00  0.00000000E+00
  0.00000000E+00  0.00000000E+00  0.00000000E+00
  0.00000000E+00  0.00000000E+00  0.00000000E+00
  0.00000000E+00  0.00000000E+00  0.00000000E+00
  0.00000000E+00  0.00000000E+00  0.00000000E+00
  0.00000000E+00  0.00000000E+00  0.00000000E+00
  0.00000000E+00  0.00000000E+00  0.00000000E+00
  0.00000000E+00  0.00000000E+00  0.00000000E+00
  0.00000000E+00  0.00000000E+00  0.00000000E+00
  0.00000000E+00  0.00000000E+00  0.00000000E+00
  0.00000000E+00  0.00000000E+00  0.00000000E+00
  0.00000000E+00  0.00000000E+00  0.00000000E+00
  0.00000000E+00  0.00000000E+00  0.00000000E+00
  0.00000000E+00  0.00000000E+00  0.00000000E+00
  0.00000000E+00  0.00000000E+00  0.00000000E+00
  0.00000000E+00  0.00000000E+00  0.00000000E+00
  0.00000000E+00  0.00000000E+00  0.00000000E+00
  0.00000000E+00  0.00000000E+00  0.00000000E+00
  0.00000000E+00  0.00000000E+00  0.00000000E+00
  0.00000000E+00  0.00000000E+00  0.00000000E+00
  0.00000000E+00  0.00000000E+00  0.00000000E+00
