This file is generated by VASPKIT code  
   1.00000000000000     
    17.3823947905999994    0.0000000000000000    0.0000000000000000
     0.0000000000000000   18.2475891113000017    0.0000000000000000
     0.0000000000000000    0.0000000000000000   40.0000000000000000
   Cs   Pb   I 
    32    32    96
Direct
  0.5047629440881202  0.4720392482708566  0.0878938777832235
  0.4935229718858465  0.4640445545329064  0.3950211405749968
  0.5047629440881202  0.4720392482708566  0.7021483437667796
  0.5047629440881202  0.9720392184778848  0.0878938777832235
  0.4935229718858465  0.9640445247399344  0.3950211405749968
  0.5047629440881202  0.9720392184778848  0.7021483437667796
  0.9806777815765489  0.4619669516813924  0.3950211405749968
  0.9806777815765489  0.9619669218884208  0.3950211405749968
 -0.0015864355531143  0.0295832822082786  0.2372667004320297
 -0.0015864355531143  0.0295832822082786  0.5527755658179753
 -0.0015864355531143  0.5295832765828764  0.2372667004320297
 -0.0015864355531143  0.5295832765828764  0.5527755658179753
  0.5285426855424799  0.0374749406577180  0.2346031985285866
  0.5285426855424799  0.0374749406577180  0.5554390677214182
  0.5285426855424799  0.5374749350323156  0.2346031985285866
  0.5285426855424799  0.5374749350323156  0.5554390677214182
  0.2515864276341794  0.2795832765732837  0.2372667004320297
  0.2515864276341794  0.2795832765732837  0.5527755658179753
  0.2515864276341794  0.7795832765924616  0.2372667004320297
  0.2515864276341794  0.7795832765924616  0.5527755658179753
  0.7214573144431388  0.2874749350227234  0.2346031985285866
  0.7214573144431388  0.2874749350227234  0.5554390677214182
  0.7214573144431388  0.7874749350419008  0.2346031985285866
  0.7214573144431388  0.7874749350419008  0.5554390677214182
  0.2693222184665948  0.2119669814839634  0.3950211405749968
  0.2693222184665948  0.7119669815031411  0.3950211405749968
  0.7452370260972295  0.2220392780734277  0.0878938777832235
  0.7564769982995031  0.2140445843354776  0.3950211405749968
  0.7452370260972295  0.2220392780734277  0.7021483437667796
  0.7452370260972295  0.7220392780926050  0.0878938777832235
  0.7564769982995031  0.7140445843546547  0.3950211405749968
  0.7452370260972295  0.7220392780926050  0.7021483437667796
  0.2482024297992745 -0.0015566849648830  0.3171941034341410
  0.2521392963398964 -0.0001180030712896  0.6239704137942957
  0.2482024297992745  0.4984433150542950  0.3171941034341410
  0.2521392963398964  0.4998819969478880  0.6239704137942957
  0.7504851023401806 -0.0012079522231327  0.3150329461364773
  0.7561848513446449  0.0035017439039670  0.6396548503015906
  0.7504851023401806  0.4987920477960447  0.3150329461364773
  0.7561848513446449  0.5035017439231445  0.6396548503015906
  0.0017975702208623  0.2484433150447093  0.3171941034341410
 -0.0021392963197598  0.2498819969383027  0.6239704137942957
  0.0017975702208623  0.7484433150090829  0.3171941034341410
 -0.0021392963197598  0.7498819969026763  0.6239704137942957
  0.4995148976454383  0.2487920477864598  0.3150329461364773
  0.4938151486409739  0.2535017439135592  0.6396548503015906
  0.4995148976454383  0.7487920477508330  0.3150329461364773
  0.4938151486409739  0.7535017438779327  0.6396548503015906
  0.2521392963398964 -0.0001180030712896  0.1660718673557051
  0.2482024297992745 -0.0015566849648830  0.4728481479158608
  0.2521392963398964  0.4998819969478880  0.1660718673557051
  0.2482024297992745  0.4984433150542950  0.4728481479158608
  0.7561848513446449  0.0035017439039670  0.1503874308484102
  0.7504851023401806 -0.0012079522231327  0.4750093052135246
  0.7561848513446449  0.5035017439231445  0.1503874308484102
  0.7504851023401806  0.4987920477960447  0.4750093052135246
 -0.0021392963197598  0.2498819969383027  0.1660718673557051
  0.0017975702208623  0.2484433150447093  0.4728481479158608
 -0.0021392963197598  0.7498819969026763  0.1660718673557051
  0.0017975702208623  0.7484433150090829  0.4728481479158608
  0.4938151486409739  0.2535017439135592  0.1503874308484102
  0.4995148976454383  0.2487920477864598  0.4750093052135246
  0.4938151486409739  0.7535017438779327  0.1503874308484102
  0.4995148976454383  0.7487920477508330  0.4750093052135246
  0.0462474216455735  0.2553798574163335  0.3950211405749968
  0.0462474216455735  0.7553798573807140  0.3950211405749968
  0.5290803060414225  0.2593277649913448  0.0749561628962668
  0.5334218896629320  0.2526393656744254  0.3950211405749968
  0.5290803060414225  0.2593277649913448  0.7150860586537360
  0.5290803060414225  0.7593277649557251  0.0749561628962668
  0.5334218896629320  0.7526393656388062  0.3950211405749968
  0.5290803060414225  0.7593277649557251  0.7150860586537360
  0.4736713648684767  0.2464452251525273  0.2361946103471803
  0.4736713648684767  0.2464452251525273  0.5538476559028244
  0.4736713648684767  0.7464452251717122  0.2361946103471803
  0.4736713648684767  0.7464452251717122  0.5538476559028244
  0.9426968869434117  0.2402809132181893  0.2382848750977280
  0.9426968869434117  0.2402809132181893  0.5517573911522768
  0.9426968869434117  0.7402809132373739  0.2382848750977280
  0.9426968869434117  0.7402809132373739  0.5517573911522768
  0.3073031130997325  0.4902809132277813  0.2382848750977280
  0.3073031130997325  0.4902809132277813  0.5517573911522768
  0.3073031130997325  0.9902809728164746  0.2382848750977280
  0.3073031130997325  0.9902809728164746  0.5517573911522768
  0.7763286351171347  0.4964452251621196  0.2361946103471803
  0.7763286351171347  0.4964452251621196  0.5538476559028244
  0.7763286351171347  0.9964452847508130  0.2361946103471803
  0.7763286351171347  0.9964452847508130  0.5538476559028244
  0.2037525727942022  0.0053798606400446  0.3950211405749968
  0.2037525727942022  0.5053798573711217  0.3950211405749968
  0.7209196939441961  0.0093277682150558  0.0749561628962668
  0.7165781103226866  0.0026393688981366  0.3950211405749968
  0.7209196939441961  0.0093277682150558  0.7150860586537360
  0.7209196939441961  0.5093277649461327  0.0749561628962668
  0.7165781103226866  0.5026393656292139  0.3950211405749968
  0.7209196939441961  0.5093277649461327  0.7150860586537360
  0.4003748973436275  0.0986149897406175  0.3285156146520940
  0.3942952241262590  0.1031134017325859  0.6450462029723865
  0.4003748973436275  0.5986150195719513  0.3285156146520940
  0.3942952241262590  0.6031134315639194  0.6450462029723865
  0.9027878224674407  0.1000803027515660  0.3286514695312743
  0.9048827128425144  0.1085721052285133  0.6506266400601727
  0.9027878224674407  0.6000803325828997  0.3286514695312743
  0.9048827128425144  0.6085721350598473  0.6506266400601727
  0.0994499515306447  0.3965268454510200  0.3011388778118969
  0.1065410032185503  0.3925441456180244  0.6113676957458178
  0.0994499515306448  0.8965268156580410  0.3011388778118969
  0.1065410032185503  0.8925441158250453  0.6113676957458178
  0.5963812840660523  0.4005726513582036  0.3051131395011831
  0.6041040242200055  0.3971896668128498  0.6241580536540530
  0.5963812840660523  0.9005726215652250  0.3051131395011831
  0.6041040242200055  0.8971896370198711  0.6241580536540530
  0.1505500484319593  0.1465268454414277  0.3011388778118969
  0.1434589967440538  0.1425441456084320  0.6113676957458178
  0.1505500484319593  0.6465268156484558  0.3011388778118969
  0.1434589967440538  0.6425441158154601  0.6113676957458178
  0.6536187159770919  0.1505726513486112  0.3051131395011831
  0.6458959758231386  0.1471896668032575  0.6241580536540530
  0.6536187159770919  0.6505726215556398  0.3051131395011831
  0.6458959758231386  0.6471896370102859  0.6241580536540530
  0.3472121775181777  0.3500803027611513  0.3286514695312743
  0.3451172871431044  0.3585721052380986  0.6506266400601727
  0.3472121775181777  0.8500803325924920  0.3286514695312743
  0.3451172871431044  0.8585721350694396  0.6506266400601727
  0.8496251324422601  0.3486149897502027  0.3285156146520940
  0.8557048056596285  0.3531134017421710  0.6450462029723865
  0.8496251324422601  0.8486150195815436  0.3285156146520940
  0.8557048056596285  0.8531134315735117  0.6450462029723865
  0.1065410032185503  0.3925441456180244  0.1786745406791842
  0.0994499515306447  0.3965268454510200  0.4889033735381050
  0.1065410032185503  0.8925441158250453  0.1786745406791842
  0.0994499515306448  0.8965268156580410  0.4889033735381050
  0.6041040242200055  0.3971896668128498  0.1658841827709486
  0.5963812840660523  0.4005726513582036  0.4849291118488187
  0.6041040242200055  0.8971896370198711  0.1658841827709486
  0.5963812840660523  0.9005726215652250  0.4849291118488187
  0.3942952241262590  0.1031134017325859  0.1449960483776153
  0.4003748973436275  0.0986149897406175  0.4615266366979078
  0.3942952241262590  0.6031134315639194  0.1449960483776153
  0.4003748973436275  0.5986150195719513  0.4615266366979078
  0.9048827128425144  0.1085721052285133  0.1394156112898291
  0.9027878224674407  0.1000803027515660  0.4613907818187276
  0.9048827128425144  0.6085721350598473  0.1394156112898291
  0.9027878224674407  0.6000803325828997  0.4613907818187276
  0.3451172871431044  0.3585721052380986  0.1394156112898291
  0.3472121775181777  0.3500803027611513  0.4613907818187276
  0.3451172871431044  0.8585721350694396  0.1394156112898291
  0.3472121775181777  0.8500803325924920  0.4613907818187276
  0.8557048056596285  0.3531134017421710  0.1449960483776153
  0.8496251324422601  0.3486149897502027  0.4615266366979078
  0.8557048056596285  0.8531134315735117  0.1449960483776153
  0.8496251324422601  0.8486150195815436  0.4615266366979078
  0.1434589967440538  0.1425441456084320  0.1786745406791842
  0.1505500484319593  0.1465268454414277  0.4889033735381050
  0.1434589967440538  0.6425441158154601  0.1786745406791842
  0.1505500484319593  0.6465268156484558  0.4889033735381050
  0.6458959758231386  0.1471896668032575  0.1658841827709486
  0.6536187159770919  0.1505726513486112  0.4849291118488187
  0.6458959758231386  0.6471896370102859  0.1658841827709486
  0.6536187159770919  0.6505726215556398  0.4849291118488187
 
  0.00000000E+00  0.00000000E+00  0.00000000E+00
  0.00000000E+00  0.00000000E+00  0.00000000E+00
  0.00000000E+00  0.00000000E+00  0.00000000E+00
  0.00000000E+00  0.00000000E+00  0.00000000E+00
  0.00000000E+00  0.00000000E+00  0.00000000E+00
  0.00000000E+00  0.00000000E+00  0.00000000E+00
  0.00000000E+00  0.00000000E+00  0.00000000E+00
  0.00000000E+00  0.00000000E+00  0.00000000E+00
  0.00000000E+00  0.00000000E+00  0.00000000E+00
  0.00000000E+00  0.00000000E+00  0.00000000E+00
  0.00000000E+00  0.00000000E+00  0.00000000E+00
  0.00000000E+00  0.00000000E+00  0.00000000E+00
  0.00000000E+00  0.00000000E+00  0.00000000E+00
  0.00000000E+00  0.00000000E+00  0.00000000E+00
  0.00000000E+00  0.00000000E+00  0.00000000E+00
  0.00000000E+00  0.00000000E+00  0.00000000E+00
  0.00000000E+00  0.00000000E+00  0.00000000E+00
  0.00000000E+00  0.00000000E+00  0.00000000E+00
  0.00000000E+00  0.00000000E+00  0.00000000E+00
  0.00000000E+00  0.00000000E+00  0.00000000E+00
  0.00000000E+00  0.00000000E+00  0.00000000E+00
  0.00000000E+00  0.00000000E+00  0.00000000E+00
  0.00000000E+00  0.00000000E+00  0.00000000E+00
  0.00000000E+00  0.00000000E+00  0.00000000E+00
  0.00000000E+00  0.00000000E+00  0.00000000E+00
  0.00000000E+00  0.00000000E+00  0.00000000E+00
  0.00000000E+00  0.00000000E+00  0.00000000E+00
  0.00000000E+00  0.00000000E+00  0.00000000E+00
  0.00000000E+00  0.00000000E+00  0.00000000E+00
  0.00000000E+00  0.00000000E+00  0.00000000E+00
  0.00000000E+00  0.00000000E+00  0.00000000E+00
  0.00000000E+00  0.00000000E+00  0.00000000E+00
  0.00000000E+00  0.00000000E+00  0.00000000E+00
  0.00000000E+00  0.00000000E+00  0.00000000E+00
  0.00000000E+00  0.00000000E+00  0.00000000E+00
  0.00000000E+00  0.00000000E+00  0.00000000E+00
  0.00000000E+00  0.00000000E+00  0.00000000E+00
  0.00000000E+00  0.00000000E+00  0.00000000E+00
  0.00000000E+00  0.00000000E+00  0.00000000E+00
  0.00000000E+00  0.00000000E+00  0.00000000E+00
  0.00000000E+00  0.00000000E+00  0.00000000E+00
  0.00000000E+00  0.00000000E+00  0.00000000E+00
  0.00000000E+00  0.00000000E+00  0.00000000E+00
  0.00000000E+00  0.00000000E+00  0.00000000E+00
  0.00000000E+00  0.00000000E+00  0.00000000E+00
  0.00000000E+00  0.00000000E+00  0.00000000E+00
  0.00000000E+00  0.00000000E+00  0.00000000E+00
  0.00000000E+00  0.00000000E+00  0.00000000E+00
  0.00000000E+00  0.00000000E+00  0.00000000E+00
  0.00000000E+00  0.00000000E+00  0.00000000E+00
  0.00000000E+00  0.00000000E+00  0.00000000E+00
  0.00000000E+00  0.00000000E+00  0.00000000E+00
  0.00000000E+00  0.00000000E+00  0.00000000E+00
  0.00000000E+00  0.00000000E+00  0.00000000E+00
  0.00000000E+00  0.00000000E+00  0.00000000E+00
  0.00000000E+00  0.00000000E+00  0.00000000E+00
  0.00000000E+00  0.00000000E+00  0.00000000E+00
  0.00000000E+00  0.00000000E+00  0.00000000E+00
  0.00000000E+00  0.00000000E+00  0.00000000E+00
  0.00000000E+00  0.00000000E+00  0.00000000E+00
  0.00000000E+00  0.00000000E+00  0.00000000E+00
  0.00000000E+00  0.00000000E+00  0.00000000E+00
  0.00000000E+00  0.00000000E+00  0.00000000E+00
  0.00000000E+00  0.00000000E+00  0.00000000E+00
  0.00000000E+00  0.00000000E+00  0.00000000E+00
  0.00000000E+00  0.00000000E+00  0.00000000E+00
  0.00000000E+00  0.00000000E+00  0.00000000E+00
  0.00000000E+00  0.00000000E+00  0.00000000E+00
  0.00000000E+00  0.00000000E+00  0.00000000E+00
  0.00000000E+00  0.00000000E+00  0.00000000E+00
  0.00000000E+00  0.00000000E+00  0.00000000E+00
  0.00000000E+00  0.00000000E+00  0.00000000E+00
  0.00000000E+00  0.00000000E+00  0.00000000E+00
  0.00000000E+00  0.00000000E+00  0.00000000E+00
  0.00000000E+00  0.00000000E+00  0.00000000E+00
  0.00000000E+00  0.00000000E+00  0.00000000E+00
  0.00000000E+00  0.00000000E+00  0.00000000E+00
  0.00000000E+00  0.00000000E+00  0.00000000E+00
  0.00000000E+00  0.00000000E+00  0.00000000E+00
  0.00000000E+00  0.00000000E+00  0.00000000E+00
  0.00000000E+00  0.00000000E+00  0.00000000E+00
  0.00000000E+00  0.00000000E+00  0.00000000E+00
  0.00000000E+00  0.00000000E+00  0.00000000E+00
  0.00000000E+00  0.00000000E+00  0.00000000E+00
  0.00000000E+00  0.00000000E+00  0.00000000E+00
  0.00000000E+00  0.00000000E+00  0.00000000E+00
  0.00000000E+00  0.00000000E+00  0.00000000E+00
  0.00000000E+00  0.00000000E+00  0.00000000E+00
  0.00000000E+00  0.00000000E+00  0.00000000E+00
  0.00000000E+00  0.00000000E+00  0.00000000E+00
  0.00000000E+00  0.00000000E+00  0.00000000E+00
  0.00000000E+00  0.00000000E+00  0.00000000E+00
  0.00000000E+00  0.00000000E+00  0.00000000E+00
  0.00000000E+00  0.00000000E+00  0.00000000E+00
  0.00000000E+00  0.00000000E+00  0.00000000E+00
  0.00000000E+00  0.00000000E+00  0.00000000E+00
  0.00000000E+00  0.00000000E+00  0.00000000E+00
  0.00000000E+00  0.00000000E+00  0.00000000E+00
  0.00000000E+00  0.00000000E+00  0.00000000E+00
  0.00000000E+00  0.00000000E+00  0.00000000E+00
  0.00000000E+00  0.00000000E+00  0.00000000E+00
  0.00000000E+00  0.00000000E+00  0.00000000E+00
  0.00000000E+00  0.00000000E+00  0.00000000E+00
  0.00000000E+00  0.00000000E+00  0.00000000E+00
  0.00000000E+00  0.00000000E+00  0.00000000E+00
  0.00000000E+00  0.00000000E+00  0.00000000E+00
  0.00000000E+00  0.00000000E+00  0.00000000E+00
  0.00000000E+00  0.00000000E+00  0.00000000E+00
  0.00000000E+00  0.00000000E+00  0.00000000E+00
  0.00000000E+00  0.00000000E+00  0.00000000E+00
  0.00000000E+00  0.00000000E+00  0.00000000E+00
  0.00000000E+00  0.00000000E+00  0.00000000E+00
  0.00000000E+00  0.00000000E+00  0.00000000E+00
  0.00000000E+00  0.00000000E+00  0.00000000E+00
  0.00000000E+00  0.00000000E+00  0.00000000E+00
  0.00000000E+00  0.00000000E+00  0.00000000E+00
  0.00000000E+00  0.00000000E+00  0.00000000E+00
  0.00000000E+00  0.00000000E+00  0.00000000E+00
  0.00000000E+00  0.00000000E+00  0.00000000E+00
  0.00000000E+00  0.00000000E+00  0.00000000E+00
  0.00000000E+00  0.00000000E+00  0.00000000E+00
  0.00000000E+00  0.00000000E+00  0.00000000E+00
  0.00000000E+00  0.00000000E+00  0.00000000E+00
  0.00000000E+00  0.00000000E+00  0.00000000E+00
  0.00000000E+00  0.00000000E+00  0.00000000E+00
  0.00000000E+00  0.00000000E+00  0.00000000E+00
  0.00000000E+00  0.00000000E+00  0.00000000E+00
  0.00000000E+00  0.00000000E+00  0.00000000E+00
  0.00000000E+00  0.00000000E+00  0.00000000E+00
  0.00000000E+00  0.00000000E+00  0.00000000E+00
  0.00000000E+00  0.00000000E+00  0.00000000E+00
  0.00000000E+00  0.00000000E+00  0.00000000E+00
  0.00000000E+00  0.00000000E+00  0.00000000E+00
  0.00000000E+00  0.00000000E+00  0.00000000E+00
  0.00000000E+00  0.00000000E+00  0.00000000E+00
  0.00000000E+00  0.00000000E+00  0.00000000E+00
  0.00000000E+00  0.00000000E+00  0.00000000E+00
  0.00000000E+00  0.00000000E+00  0.00000000E+00
  0.00000000E+00  0.00000000E+00  0.00000000E+00
  0.00000000E+00  0.00000000E+00  0.00000000E+00
  0.00000000E+00  0.00000000E+00  0.00000000E+00
  0.00000000E+00  0.00000000E+00  0.00000000E+00
  0.00000000E+00  0.00000000E+00  0.00000000E+00
  0.00000000E+00  0.00000000E+00  0.00000000E+00
  0.00000000E+00  0.00000000E+00  0.00000000E+00
  0.00000000E+00  0.00000000E+00  0.00000000E+00
  0.00000000E+00  0.00000000E+00  0.00000000E+00
  0.00000000E+00  0.00000000E+00  0.00000000E+00
  0.00000000E+00  0.00000000E+00  0.00000000E+00
  0.00000000E+00  0.00000000E+00  0.00000000E+00
  0.00000000E+00  0.00000000E+00  0.00000000E+00
  0.00000000E+00  0.00000000E+00  0.00000000E+00
  0.00000000E+00  0.00000000E+00  0.00000000E+00
  0.00000000E+00  0.00000000E+00  0.00000000E+00
  0.00000000E+00  0.00000000E+00  0.00000000E+00
  0.00000000E+00  0.00000000E+00  0.00000000E+00
  0.00000000E+00  0.00000000E+00  0.00000000E+00
  0.00000000E+00  0.00000000E+00  0.00000000E+00
  0.00000000E+00  0.00000000E+00  0.00000000E+00
  0.00000000E+00  0.00000000E+00  0.00000000E+00
