This file is generated by VASPKIT code  
   1.00000000000000     
    12.6406764983999995    0.0000000000000000    0.0000000000000000
     0.0000000000000000   25.2016296386999983    0.0000000000000000
     0.0000000000000000    1.8348134680999999   55.7578896671000024
   Cs   Pb   I 
    24    32    96
Direct
  0.2500000000316405  0.5156288150305253  0.2407892393001623
  0.2500000000316405  0.5097453868022886  0.4702579458970496
  0.2500000000316405  0.9904109405772323  0.2380754620576946
  0.2500000000316405  0.9851680311210627  0.4755161378969436
  0.2500000000316405  0.2456681647747383  0.3540548876486380
  0.2500000000316405  0.7485654605897607  0.3565168545946045
  0.7500000595854175  0.0099477177596779  0.2592518398738514
  0.7500000595854175  0.0040643156013533  0.4887205911595711
  0.7500000595854175  0.5345251060181584  0.2539936478739575
  0.7500000595854175  0.5292821360224260  0.4914343684020388
  0.7500000595854175  0.2740249714520179  0.3754549428111023
  0.7500000595854175  0.7711277352085433  0.3729929758651357
  0.7500000595854175  0.0297723654492306  0.3718182525363437
  0.7500000595854175  0.5371639774279287  0.3678567037695720
  0.7500000595854175  0.2716418408755489  0.2498378547788945
  0.7500000595854175  0.2757076868989484  0.4853308018011621
  0.7500000595854175  0.7784648944511059  0.2501646250731304
  0.7500000595854175  0.7738097136493300  0.4852656462462031
  0.2500000000316405  0.4899207167850175  0.3576916077352758
  0.2500000000316405  0.9825291587829896  0.3616531565020475
  0.2500000000316405  0.2439854046335826  0.2441790435741778
  0.2500000000316405  0.2480512655501427  0.4796719757001654
  0.2500000000316405  0.7458833629754318  0.2442441991291368
  0.2500000000316405  0.7412281821471456  0.4793452054059297
 -0.0006372965698569  0.3829688136635648  0.3085397697393788
  0.9977493106142411  0.3880621013964460  0.5286069951927697
  0.0004118135296082  0.8832850831799470  0.3070241523581854
  0.0046611735578050  0.8779514034625295  0.5437893811655079
  0.0022506893857590  0.1316310050292386  0.2009028352862902
  0.0006372965698568  0.1367243076554505  0.4209700905322407
  0.9953388264421956  0.6417417327350448  0.1857204493135517
 -0.0004118135296082  0.6364079933919646  0.4224857079134341
  0.9976674871358842  0.1327724321432330  0.3099519875745761
  0.0074002544621515  0.1291809341713837  0.5303693297708052
  0.0004940134351014  0.6355388457585341  0.3070477845040132
  0.0034520952626769  0.6352500705971469  0.5449010796126491
  0.9925997455378487  0.3905121722146241  0.1991405007082549
  0.0023325128641162  0.3869206891757895  0.4195578726970434
  0.9965479047373230  0.8844430656401041  0.1846087508664110
 -0.0004940134351018  0.8841542308530542  0.4224620757676062
  0.5006372965540329  0.3829688136635648  0.3085397697393788
  0.5022506893699351  0.3880621013964460  0.5286069951927697
  0.4995881864545684  0.8832850831799470  0.3070241523581854
  0.4953388264263710  0.8779514034625295  0.5437893811655079
  0.4977493105984171  0.1316310050292386  0.2009028352862902
  0.4993627034143195  0.1367243076554505  0.4209700905322407
  0.5046611735419806  0.6417417327350448  0.1857204493135517
  0.5004118135137845  0.6364079933919646  0.4224857079134341
  0.5023325128482921  0.1327724321432330  0.3099519875745761
  0.4925997455220247  0.1291809341713837  0.5303693297708052
  0.4995059865490751  0.6355388457585341  0.3070477845040132
  0.4965479047214995  0.6352500705971469  0.5449010796126491
  0.5074002544463275  0.3905121722146241  0.1991405007082549
  0.4976674871200597  0.3869206891757895  0.4195578726970434
  0.5034520952468532  0.8844430656401041  0.1846087508664110
  0.5004940134192779  0.8841542308530542  0.4224620757676062
  0.2500000000316405  0.1133860824905627  0.3202677927432254
  0.2500000000316405  0.1415526968111075  0.5441662848317398
  0.2500000000316405  0.6169062166296994  0.3166468185983096
  0.2500000000316405  0.6289418813670937  0.5338184571699897
  0.2500000000316405  0.3804442527339137  0.2073581285370884
  0.2500000000316405  0.3712363670498250  0.4326322967339574
  0.2500000000316405  0.8728269113581623  0.1957572512709748
  0.2500000000316405  0.8648253332837784  0.4302440502631092
  0.7500000595854175  0.3781403947094866  0.1853435307317210
  0.7500000595854175  0.4063070462868775  0.4092420675477137
  0.7500000595854175  0.8907511952457310  0.1956913583934709
  0.7500000595854175  0.9027868599804821  0.4128630416926296
  0.7500000595854175  0.1484567095895455  0.2968775635376620
  0.7500000595854175  0.1392488834636890  0.5221517317538508
  0.7500000595854175  0.6548678029271328  0.2992658100085102
  0.7500000595854175  0.6468662248910259  0.5337526090199640
  0.7500000595854175  0.1310170233587376  0.2117563487309979
  0.7500000595854175  0.1127967214229963  0.4312729885620317
  0.7500000595854175  0.6379432249198193  0.1993180562653625
  0.7500000595854175  0.6108767055189713  0.4282883303945499
  0.7500000595854175  0.3536987395847157  0.3143154120862786
  0.7500000595854175  0.3743248471144258  0.5404255020609638
  0.7500000595854175  0.8588139048890472  0.3121689680969009
  0.7500000595854175  0.8779877726171085  0.5368048849993655
  0.2500000000316405  0.4068964073439208  0.2982368418977086
  0.2500000000316405  0.3886760532541226  0.5177534966443412
  0.2500000000316405  0.9088163710806870  0.3012215000651903
  0.2500000000316405  0.8817498517049426  0.5301917891099773
  0.2500000000316405  0.1453682444312715  0.1890843284180958
  0.2500000000316405  0.1659943817223627  0.4151944183734546
  0.2500000000316405  0.6417053039811430  0.1927049454796946
  0.2500000000316405  0.6608792909092568  0.4173408623628323
  0.0442351569930927  0.3601594695141393  0.3645443933057987
  0.0009472121979493  0.8743825971331103  0.1339772539533962
  0.0326142039328972  0.8620682258748609  0.3650725231757507
  0.0154096163047095  0.8626298800412125  0.5945761460966875
  0.0520321477229034  0.1081118408533924  0.2535565605818751
  0.0587885254625796  0.1135658422948086  0.4778441401655007
  0.0237973809930040  0.6204882080507166  0.2522077550613794
  0.0238116461717680  0.6169020067252611  0.4775283971186521
  0.9557648616451537  0.1595336517782023  0.3649654073807017
  0.9845904023335369  0.6570631965703829  0.1349337141749319
  0.9673858147053490  0.6576248507100466  0.3644372775107497
 -0.0009471935597029  0.6453104794790891  0.5955325839641439
  0.9412114931756670  0.4061272566313673  0.2516656903135592
  0.9479678709153435  0.4115813027935121  0.4759532698778580
  0.9761883724664786  0.9027910699126671  0.2519814333604078
  0.9762026376452423  0.8992049281879413  0.4773020753983537
  0.9592846913338622  0.5075435302356145  0.3171083564672214
  0.9857345866691095  0.5093499370000766  0.5416246252521247
  0.9554269722140738  0.0083795364927264  0.3193922783891933
  0.9895712877568288  0.0057729147237843  0.5395913327759578
  0.9927868292175743  0.2597554837505255  0.2037836409342329
  0.9573587415755164  0.2611481308491538  0.4319876657508527
 -0.0062488866587556  0.7622552770265348  0.2030794729623679
  0.9517466076115106  0.7596602485215744  0.4312078914246093
  0.0142654319691372  0.0103431866203796  0.1878852350194944
  0.0407153273043848  0.0121495882938669  0.4124014739925118
  0.0104287308814249  0.5139202782969514  0.1899185274956613
  0.0445730464241722  0.5113135410473492  0.4101175520705399
  0.0426412770627299  0.2585450053776024  0.2975221647088876
  0.0072131894206714  0.2599376226883324  0.5257261746485472
  0.0482534110267359  0.7600330069157220  0.2983019390351310
  0.0062489052970021  0.7574377995848901  0.5264303426204126
  0.5442351383864938  0.1595336517782023  0.3649654073807017
  0.5154095976981107  0.6570631965703829  0.1349337141749319
  0.5326141853262986  0.6576248507100466  0.3644372775107497
  0.5009471935913509  0.6453104794790891  0.5955325839641439
  0.5587885068559806  0.4061272566313673  0.2516656903135592
  0.5520321291163041  0.4115813027935121  0.4759532698778580
  0.5238116275651690  0.9027910699126671  0.2519814333604078
  0.5237973623864053  0.8992049281879413  0.4773020753983537
  0.4557648318366213  0.3601594695141393  0.3645443933057987
  0.4990527766317647  0.8743825971331103  0.1339772539533962
  0.4673857848968167  0.8620682258748609  0.3650725231757507
  0.4845903725250045  0.8626298800412125  0.5945761460966875
  0.4479678411068104  0.1081118408533924  0.2535565605818751
  0.4412114633671345  0.1135658422948086  0.4778441401655007
  0.4762026078367100  0.6204882080507166  0.2522077550613794
  0.4761883426579461  0.6169020067252611  0.4775283971186521
  0.4857345568605769  0.0103431866203796  0.1878852350194944
  0.4592846615253291  0.0121495882938669  0.4124014739925118
  0.4895712579482961  0.5139202782969514  0.1899185274956613
  0.4554269424055416  0.5113135410473492  0.4101175520705399
  0.4573587117669841  0.2585450053776024  0.2975221647088876
  0.4927867994090426  0.2599376226883324  0.5257261746485472
  0.4517465778029779  0.7600330069157220  0.2983019390351310
  0.4937510835327119  0.7574377995848901  0.5264303426204126
  0.5407153086977854  0.5075435302356145  0.3171083564672214
  0.5142654133625381  0.5093499370000766  0.5416246252521247
  0.5445730278175738  0.0083795364927264  0.3193922783891933
  0.5104287122748188  0.0057729147237843  0.5395913327759578
  0.5072131708140732  0.2597554837505255  0.2037836409342329
  0.5426412584561312  0.2611481308491539  0.4319876657508527
  0.5062488866904030  0.7622552770265348  0.2030794729623679
  0.5482533924201369  0.7596602485215744  0.4312078914246093
 
  0.00000000E+00  0.00000000E+00  0.00000000E+00
  0.00000000E+00  0.00000000E+00  0.00000000E+00
  0.00000000E+00  0.00000000E+00  0.00000000E+00
  0.00000000E+00  0.00000000E+00  0.00000000E+00
  0.00000000E+00  0.00000000E+00  0.00000000E+00
  0.00000000E+00  0.00000000E+00  0.00000000E+00
  0.00000000E+00  0.00000000E+00  0.00000000E+00
  0.00000000E+00  0.00000000E+00  0.00000000E+00
  0.00000000E+00  0.00000000E+00  0.00000000E+00
  0.00000000E+00  0.00000000E+00  0.00000000E+00
  0.00000000E+00  0.00000000E+00  0.00000000E+00
  0.00000000E+00  0.00000000E+00  0.00000000E+00
  0.00000000E+00  0.00000000E+00  0.00000000E+00
  0.00000000E+00  0.00000000E+00  0.00000000E+00
  0.00000000E+00  0.00000000E+00  0.00000000E+00
  0.00000000E+00  0.00000000E+00  0.00000000E+00
  0.00000000E+00  0.00000000E+00  0.00000000E+00
  0.00000000E+00  0.00000000E+00  0.00000000E+00
  0.00000000E+00  0.00000000E+00  0.00000000E+00
  0.00000000E+00  0.00000000E+00  0.00000000E+00
  0.00000000E+00  0.00000000E+00  0.00000000E+00
  0.00000000E+00  0.00000000E+00  0.00000000E+00
  0.00000000E+00  0.00000000E+00  0.00000000E+00
  0.00000000E+00  0.00000000E+00  0.00000000E+00
  0.00000000E+00  0.00000000E+00  0.00000000E+00
  0.00000000E+00  0.00000000E+00  0.00000000E+00
  0.00000000E+00  0.00000000E+00  0.00000000E+00
  0.00000000E+00  0.00000000E+00  0.00000000E+00
  0.00000000E+00  0.00000000E+00  0.00000000E+00
  0.00000000E+00  0.00000000E+00  0.00000000E+00
  0.00000000E+00  0.00000000E+00  0.00000000E+00
  0.00000000E+00  0.00000000E+00  0.00000000E+00
  0.00000000E+00  0.00000000E+00  0.00000000E+00
  0.00000000E+00  0.00000000E+00  0.00000000E+00
  0.00000000E+00  0.00000000E+00  0.00000000E+00
  0.00000000E+00  0.00000000E+00  0.00000000E+00
  0.00000000E+00  0.00000000E+00  0.00000000E+00
  0.00000000E+00  0.00000000E+00  0.00000000E+00
  0.00000000E+00  0.00000000E+00  0.00000000E+00
  0.00000000E+00  0.00000000E+00  0.00000000E+00
  0.00000000E+00  0.00000000E+00  0.00000000E+00
  0.00000000E+00  0.00000000E+00  0.00000000E+00
  0.00000000E+00  0.00000000E+00  0.00000000E+00
  0.00000000E+00  0.00000000E+00  0.00000000E+00
  0.00000000E+00  0.00000000E+00  0.00000000E+00
  0.00000000E+00  0.00000000E+00  0.00000000E+00
  0.00000000E+00  0.00000000E+00  0.00000000E+00
  0.00000000E+00  0.00000000E+00  0.00000000E+00
  0.00000000E+00  0.00000000E+00  0.00000000E+00
  0.00000000E+00  0.00000000E+00  0.00000000E+00
  0.00000000E+00  0.00000000E+00  0.00000000E+00
  0.00000000E+00  0.00000000E+00  0.00000000E+00
  0.00000000E+00  0.00000000E+00  0.00000000E+00
  0.00000000E+00  0.00000000E+00  0.00000000E+00
  0.00000000E+00  0.00000000E+00  0.00000000E+00
  0.00000000E+00  0.00000000E+00  0.00000000E+00
  0.00000000E+00  0.00000000E+00  0.00000000E+00
  0.00000000E+00  0.00000000E+00  0.00000000E+00
  0.00000000E+00  0.00000000E+00  0.00000000E+00
  0.00000000E+00  0.00000000E+00  0.00000000E+00
  0.00000000E+00  0.00000000E+00  0.00000000E+00
  0.00000000E+00  0.00000000E+00  0.00000000E+00
  0.00000000E+00  0.00000000E+00  0.00000000E+00
  0.00000000E+00  0.00000000E+00  0.00000000E+00
  0.00000000E+00  0.00000000E+00  0.00000000E+00
  0.00000000E+00  0.00000000E+00  0.00000000E+00
  0.00000000E+00  0.00000000E+00  0.00000000E+00
  0.00000000E+00  0.00000000E+00  0.00000000E+00
  0.00000000E+00  0.00000000E+00  0.00000000E+00
  0.00000000E+00  0.00000000E+00  0.00000000E+00
  0.00000000E+00  0.00000000E+00  0.00000000E+00
  0.00000000E+00  0.00000000E+00  0.00000000E+00
  0.00000000E+00  0.00000000E+00  0.00000000E+00
  0.00000000E+00  0.00000000E+00  0.00000000E+00
  0.00000000E+00  0.00000000E+00  0.00000000E+00
  0.00000000E+00  0.00000000E+00  0.00000000E+00
  0.00000000E+00  0.00000000E+00  0.00000000E+00
  0.00000000E+00  0.00000000E+00  0.00000000E+00
  0.00000000E+00  0.00000000E+00  0.00000000E+00
  0.00000000E+00  0.00000000E+00  0.00000000E+00
  0.00000000E+00  0.00000000E+00  0.00000000E+00
  0.00000000E+00  0.00000000E+00  0.00000000E+00
  0.00000000E+00  0.00000000E+00  0.00000000E+00
  0.00000000E+00  0.00000000E+00  0.00000000E+00
  0.00000000E+00  0.00000000E+00  0.00000000E+00
  0.00000000E+00  0.00000000E+00  0.00000000E+00
  0.00000000E+00  0.00000000E+00  0.00000000E+00
  0.00000000E+00  0.00000000E+00  0.00000000E+00
  0.00000000E+00  0.00000000E+00  0.00000000E+00
  0.00000000E+00  0.00000000E+00  0.00000000E+00
  0.00000000E+00  0.00000000E+00  0.00000000E+00
  0.00000000E+00  0.00000000E+00  0.00000000E+00
  0.00000000E+00  0.00000000E+00  0.00000000E+00
  0.00000000E+00  0.00000000E+00  0.00000000E+00
  0.00000000E+00  0.00000000E+00  0.00000000E+00
  0.00000000E+00  0.00000000E+00  0.00000000E+00
  0.00000000E+00  0.00000000E+00  0.00000000E+00
  0.00000000E+00  0.00000000E+00  0.00000000E+00
  0.00000000E+00  0.00000000E+00  0.00000000E+00
  0.00000000E+00  0.00000000E+00  0.00000000E+00
  0.00000000E+00  0.00000000E+00  0.00000000E+00
  0.00000000E+00  0.00000000E+00  0.00000000E+00
  0.00000000E+00  0.00000000E+00  0.00000000E+00
  0.00000000E+00  0.00000000E+00  0.00000000E+00
  0.00000000E+00  0.00000000E+00  0.00000000E+00
  0.00000000E+00  0.00000000E+00  0.00000000E+00
  0.00000000E+00  0.00000000E+00  0.00000000E+00
  0.00000000E+00  0.00000000E+00  0.00000000E+00
  0.00000000E+00  0.00000000E+00  0.00000000E+00
  0.00000000E+00  0.00000000E+00  0.00000000E+00
  0.00000000E+00  0.00000000E+00  0.00000000E+00
  0.00000000E+00  0.00000000E+00  0.00000000E+00
  0.00000000E+00  0.00000000E+00  0.00000000E+00
  0.00000000E+00  0.00000000E+00  0.00000000E+00
  0.00000000E+00  0.00000000E+00  0.00000000E+00
  0.00000000E+00  0.00000000E+00  0.00000000E+00
  0.00000000E+00  0.00000000E+00  0.00000000E+00
  0.00000000E+00  0.00000000E+00  0.00000000E+00
  0.00000000E+00  0.00000000E+00  0.00000000E+00
  0.00000000E+00  0.00000000E+00  0.00000000E+00
  0.00000000E+00  0.00000000E+00  0.00000000E+00
  0.00000000E+00  0.00000000E+00  0.00000000E+00
  0.00000000E+00  0.00000000E+00  0.00000000E+00
  0.00000000E+00  0.00000000E+00  0.00000000E+00
  0.00000000E+00  0.00000000E+00  0.00000000E+00
  0.00000000E+00  0.00000000E+00  0.00000000E+00
  0.00000000E+00  0.00000000E+00  0.00000000E+00
  0.00000000E+00  0.00000000E+00  0.00000000E+00
  0.00000000E+00  0.00000000E+00  0.00000000E+00
  0.00000000E+00  0.00000000E+00  0.00000000E+00
  0.00000000E+00  0.00000000E+00  0.00000000E+00
  0.00000000E+00  0.00000000E+00  0.00000000E+00
  0.00000000E+00  0.00000000E+00  0.00000000E+00
  0.00000000E+00  0.00000000E+00  0.00000000E+00
  0.00000000E+00  0.00000000E+00  0.00000000E+00
  0.00000000E+00  0.00000000E+00  0.00000000E+00
  0.00000000E+00  0.00000000E+00  0.00000000E+00
  0.00000000E+00  0.00000000E+00  0.00000000E+00
  0.00000000E+00  0.00000000E+00  0.00000000E+00
  0.00000000E+00  0.00000000E+00  0.00000000E+00
  0.00000000E+00  0.00000000E+00  0.00000000E+00
  0.00000000E+00  0.00000000E+00  0.00000000E+00
  0.00000000E+00  0.00000000E+00  0.00000000E+00
  0.00000000E+00  0.00000000E+00  0.00000000E+00
  0.00000000E+00  0.00000000E+00  0.00000000E+00
  0.00000000E+00  0.00000000E+00  0.00000000E+00
  0.00000000E+00  0.00000000E+00  0.00000000E+00
  0.00000000E+00  0.00000000E+00  0.00000000E+00
  0.00000000E+00  0.00000000E+00  0.00000000E+00
  0.00000000E+00  0.00000000E+00  0.00000000E+00
  0.00000000E+00  0.00000000E+00  0.00000000E+00
  0.00000000E+00  0.00000000E+00  0.00000000E+00
