This file is generated by VASPKIT code  
   1.00000000000000     
    17.3823947905999994    0.0000000000000000    0.0000000000000000
     0.0000000000000000   18.2475891113000017    0.0000000000000000
     0.0000000000000000    0.0000000000000000   40.0000000000000000
   Cs   Pb   I 
    28    32    96
Direct
  0.4956172845098109  0.4639317482653064  0.3950211410000009
  0.5161512372310233  0.0049791482340767  0.0915048597009418
  0.4935965313693640  0.9656876309593448  0.3950211410000009
  0.5161512372310233  0.0049791482340767  0.6985373612990581
  0.9802490767228546  0.4618850504543151  0.3950211410000009
  0.9776114183128309  0.9612373824070646  0.3950211410000009
 -0.0051352328090024  0.0294205182940604  0.2359147748817609
 -0.0051352328090024  0.0294205182940604  0.5541274911182393
 -0.0089979883170136  0.5153184994173511  0.2319669596216708
 -0.0089979883170136  0.5153184994173511  0.5580753063783297
  0.5269340640006819  0.0382504350718057  0.2359593602830056
  0.5269340640006819  0.0382504350718057  0.5540829057169944
  0.5291918103421199  0.5318664258416590  0.2308116222229150
  0.5291918103421199  0.5318664258416590  0.5592306437770854
  0.2589491018069742  0.2737181184893622  0.2333005693734864
  0.2589491018069742  0.2737181184893622  0.5567416966265138
  0.2534411652653056  0.7726959319264447  0.2353338863569447
  0.2534411652653056  0.7726959319264447  0.5547083796430564
  0.7185995011397454  0.2846501603807735  0.2286495681857164
  0.7185995011397454  0.2846501603807735  0.5613926978142839
  0.7253144678784813  0.7842772205025389  0.2366814410558352
  0.7253144678784813  0.7842772205025389  0.5533608249441647
  0.2730399774543417  0.2130577734658388  0.3950211410000009
  0.2707446614792208  0.7098292335305622  0.3950211410000009
  0.7553674665183806  0.2161056117488997  0.3950211410000009
  0.7409577874711641  0.7462121823471085  0.0871036614808153
  0.7550861338316160  0.7136126460209146  0.3950211410000009
  0.7409577874711641  0.7462121823471085  0.7029385595191854
  0.2455069754371623 -0.0022805809929529  0.3176246836502888
  0.2498684428749066  0.0018716143216645  0.6217510738884739
  0.2484610169467913  0.4966966806836712  0.3171349354723407
  0.2617525038493698  0.5000214960250660  0.6252175501252865
  0.7505742159388827 -0.0011254443654751  0.3151252779159718
  0.7571748291424906  0.0045645698814332  0.6400559244018433
  0.7499431850898710  0.4977348469423084  0.3143688742304337
  0.7473006154479352  0.5070851808907388  0.6457773737533032
  0.0030587143832196  0.2485094126861006  0.3172538467657750
 -0.0083087649183995  0.2549216497178147  0.6244538721701469
  0.0033283423574634  0.7459823880009518  0.3176735247276033
 -0.0016611232521376  0.7462703431025425  0.6222433647426655
  0.5014608775178050  0.2488060139190608  0.3143058072500848
  0.4992336176897152  0.2554778981731933  0.6457214782671848
  0.4982498962726358  0.7479474072880101  0.3150122821507996
  0.4954465201189472  0.7588533773239231  0.6403516737223084
  0.2498684428749066  0.0018716143216645  0.1682912071115240
  0.2455069754371623 -0.0022805809929529  0.4724175673497139
  0.2617525038493698  0.5000214960250660  0.1648247308747118
  0.2484610169467913  0.4966966806836712  0.4729073155276620
  0.7571748291424906  0.0045645698814332  0.1499863565981541
  0.7505742159388827 -0.0011254443654751  0.4749169730840309
  0.7473006154479352  0.5070851808907388  0.1442649072466947
  0.7499431850898710  0.4977348469423084  0.4756733767695689
 -0.0083087649183995  0.2549216497178147  0.1655884088298510
  0.0030587143832196  0.2485094126861006  0.4727884042342277
 -0.0016611232521376  0.7462703431025425  0.1677989162573325
  0.0033283423574634  0.7459823880009518  0.4723687262723994
  0.4992336176897152  0.2554778981731933  0.1443208027328133
  0.5014608775178050  0.2488060139190608  0.4757364437499179
  0.4954465201189472  0.7588533773239231  0.1496906072776900
  0.4982498962726358  0.7479474072880101  0.4750299688492031
  0.0485762615620112  0.2547222954168538  0.3950211410000009
  0.0484315254139665  0.7561062594860138  0.3950211410000009
  0.5068642431313767  0.2266488066690077  0.0725322228003541
  0.5314689247492419  0.2513386685590538  0.3950211410000009
  0.5068642431313767  0.2266488066690077  0.7175099981996467
  0.5242807283186525  0.7819816652430501  0.0762412427173991
  0.5314800452533773  0.7530794943110736  0.3950211410000009
  0.5242807283186525  0.7819816652430501  0.7138009782826011
  0.4834861472185257  0.2502751448893789  0.2360099398592774
  0.4834861472185257  0.2502751448893789  0.5540323261407232
  0.4751155637473023  0.7431543406541429  0.2367020595308415
  0.4751155637473023  0.7431543406541429  0.5533402064691589
  0.9438501336263211  0.2459712030231796  0.2386102305676190
  0.9438501336263211  0.2459712030231796  0.5514320354323814
  0.9476614891241532  0.7289506211869174  0.2397296788646824
  0.9476614891241532  0.7289506211869174  0.5503125871353181
  0.3053662082596630  0.4894731791557198  0.2382353288501463
  0.3053662082596630  0.4894731791557198  0.5518069371498543
  0.3034750678995816  0.9852635940147724  0.2399757253541240
  0.3034750678995816  0.9852635940147724  0.5500665406458766
  0.7677865211226458  0.4957851844413829  0.2358932849856538
  0.7677865211226458  0.4957851844413829  0.5541489810143464
  0.7724469763955879  0.9973139707123647  0.2369000853033415
  0.7724469763955879  0.9973139707123647  0.5531421806966591
  0.1995764588433533  0.0088913553302281  0.3950211410000009
  0.2046485879998104  0.5014500015906276  0.3950211410000009
  0.7340102285858444 -0.0243806081353239  0.0767587837602612
  0.7178754989426154  0.0033661001442126  0.3950211410000009
  0.7340102285858444 -0.0243806081353239  0.7132834372397389
  0.7311383440892872  0.5299302060497155  0.0721573345490618
  0.7185292452094860  0.5013409167505322  0.3950211410000009
  0.7311383440892872  0.5299302060497155  0.7178848864509384
  0.3989842876508850  0.0988213954461833  0.3273266094446829
  0.3882041949547266  0.1109854956618817  0.6342799453760817
  0.3995640958954443  0.5978946795796031  0.3287767050913461
  0.3952817188698824  0.6046746174249958  0.6423463183949272
  0.9033439197177180  0.0999397540280939  0.3280103634301405
  0.9025900324580544  0.1050555061894115  0.6433876042986908
  0.9025348189676492  0.5997826256802786  0.3285866704822407
  0.8996975906224520  0.6115666795570417  0.6462778353476389
  0.1000697487763920  0.3956290290102791  0.3001146899478808
  0.1106476891127972  0.3865026497121350  0.6169784862292215
  0.0984215169548567  0.8956188675372176  0.3003107229326871
  0.1078951115152341  0.8889824509933254  0.6132607025477125
  0.5961434720834089  0.4009491620512967  0.3056559400836401
  0.6057069239338378  0.3961551759591104  0.6326237017386502
  0.5966677567579227  0.8997247003383436  0.3060680841053852
  0.6045494669630559  0.8946101497799031  0.6215034216013690
  0.1501419683288865  0.1458884498363987  0.2991080622056124
  0.1380435951346645  0.1403042086163588  0.6143077090428135
  0.1519450812065293  0.6455622171661164  0.3018361769083062
  0.1426671296476630  0.6359880260094849  0.6155381907144459
  0.6561558943716715  0.1518087782432519  0.3051161487764765
  0.6397475423527417  0.1379244449410754  0.6296068742498783
  0.6515069781766782  0.6489902555091569  0.3063192160913568
  0.6463573641215684  0.6507685729848630  0.6257817931099654
  0.3477277355989669  0.3490638527435185  0.3273157130021819
  0.3484971681413486  0.3537879773817112  0.6446902906852462
  0.3462366588928895  0.8501489177968805  0.3288550013703404
  0.3485994140651624  0.8639878876183652  0.6457068939217755
  0.8520423133583799  0.3492751571597881  0.3287854690400448
  0.8581219129563481  0.3617519859793536  0.6415141892767986
  0.8502025645276661  0.8479130685315694  0.3276630051852713
  0.8584773903732925  0.8535913543050448  0.6354006079642857
  0.1106476891127972  0.3865026497121350  0.1730637497707765
  0.1000697487763920  0.3956290290102791  0.4899275620521184
  0.1078951115152341  0.8889824509933254  0.1767815334522856
  0.0984215169548567  0.8956188675372176  0.4897315290673122
  0.6057069239338378  0.3961551759591104  0.1574185342613477
  0.5961434720834089  0.4009491620512967  0.4843863119163591
  0.6045494669630559  0.8946101497799031  0.1685388143986286
  0.5966677567579227  0.8997247003383436  0.4839741678946140
  0.3882041949547266  0.1109854956618817  0.1557623056239138
  0.3989842876508850  0.0988213954461833  0.4627156415553126
  0.3952817188698824  0.6046746174249958  0.1476959326050684
  0.3995640958954443  0.5978946795796031  0.4612655459086495
  0.9025900324580544  0.1050555061894115  0.1466546467013048
  0.9033439197177180  0.0999397540280939  0.4620318875698551
  0.8996975906224520  0.6115666795570417  0.1437644156523564
  0.9025348189676492  0.5997826256802786  0.4614555805177549
  0.3484971681413486  0.3537879773817112  0.1453519603147493
  0.3477277355989669  0.3490638527435185  0.4627265379978137
  0.3485994140651624  0.8639878876183652  0.1443353570782203
  0.3462366588928895  0.8501489177968805  0.4611872496296552
  0.8581219129563481  0.3617519859793536  0.1485280617231971
  0.8520423133583799  0.3492751571597881  0.4612567819599508
  0.8584773903732925  0.8535913543050448  0.1546416430357100
  0.8502025645276662  0.8479130685315694  0.4623792458147243
  0.1380435951346645  0.1403042086163588  0.1757345269571849
  0.1501419683288865  0.1458884498363987  0.4909341897943869
  0.1426671296476630  0.6359880260094849  0.1745040452855519
  0.1519450812065293  0.6455622171661164  0.4882060750916930
  0.6397475423527417  0.1379244449410754  0.1604353617501196
  0.6561558943716715  0.1518087782432519  0.4849261032235228
  0.6463573641215684  0.6507685729848630  0.1642604428900323
  0.6515069781766782  0.6489902555091569  0.4837230359086424
 
  0.00000000E+00  0.00000000E+00  0.00000000E+00
  0.00000000E+00  0.00000000E+00  0.00000000E+00
  0.00000000E+00  0.00000000E+00  0.00000000E+00
  0.00000000E+00  0.00000000E+00  0.00000000E+00
  0.00000000E+00  0.00000000E+00  0.00000000E+00
  0.00000000E+00  0.00000000E+00  0.00000000E+00
  0.00000000E+00  0.00000000E+00  0.00000000E+00
  0.00000000E+00  0.00000000E+00  0.00000000E+00
  0.00000000E+00  0.00000000E+00  0.00000000E+00
  0.00000000E+00  0.00000000E+00  0.00000000E+00
  0.00000000E+00  0.00000000E+00  0.00000000E+00
  0.00000000E+00  0.00000000E+00  0.00000000E+00
  0.00000000E+00  0.00000000E+00  0.00000000E+00
  0.00000000E+00  0.00000000E+00  0.00000000E+00
  0.00000000E+00  0.00000000E+00  0.00000000E+00
  0.00000000E+00  0.00000000E+00  0.00000000E+00
  0.00000000E+00  0.00000000E+00  0.00000000E+00
  0.00000000E+00  0.00000000E+00  0.00000000E+00
  0.00000000E+00  0.00000000E+00  0.00000000E+00
  0.00000000E+00  0.00000000E+00  0.00000000E+00
  0.00000000E+00  0.00000000E+00  0.00000000E+00
  0.00000000E+00  0.00000000E+00  0.00000000E+00
  0.00000000E+00  0.00000000E+00  0.00000000E+00
  0.00000000E+00  0.00000000E+00  0.00000000E+00
  0.00000000E+00  0.00000000E+00  0.00000000E+00
  0.00000000E+00  0.00000000E+00  0.00000000E+00
  0.00000000E+00  0.00000000E+00  0.00000000E+00
  0.00000000E+00  0.00000000E+00  0.00000000E+00
  0.00000000E+00  0.00000000E+00  0.00000000E+00
  0.00000000E+00  0.00000000E+00  0.00000000E+00
  0.00000000E+00  0.00000000E+00  0.00000000E+00
  0.00000000E+00  0.00000000E+00  0.00000000E+00
  0.00000000E+00  0.00000000E+00  0.00000000E+00
  0.00000000E+00  0.00000000E+00  0.00000000E+00
  0.00000000E+00  0.00000000E+00  0.00000000E+00
  0.00000000E+00  0.00000000E+00  0.00000000E+00
  0.00000000E+00  0.00000000E+00  0.00000000E+00
  0.00000000E+00  0.00000000E+00  0.00000000E+00
  0.00000000E+00  0.00000000E+00  0.00000000E+00
  0.00000000E+00  0.00000000E+00  0.00000000E+00
  0.00000000E+00  0.00000000E+00  0.00000000E+00
  0.00000000E+00  0.00000000E+00  0.00000000E+00
  0.00000000E+00  0.00000000E+00  0.00000000E+00
  0.00000000E+00  0.00000000E+00  0.00000000E+00
  0.00000000E+00  0.00000000E+00  0.00000000E+00
  0.00000000E+00  0.00000000E+00  0.00000000E+00
  0.00000000E+00  0.00000000E+00  0.00000000E+00
  0.00000000E+00  0.00000000E+00  0.00000000E+00
  0.00000000E+00  0.00000000E+00  0.00000000E+00
  0.00000000E+00  0.00000000E+00  0.00000000E+00
  0.00000000E+00  0.00000000E+00  0.00000000E+00
  0.00000000E+00  0.00000000E+00  0.00000000E+00
  0.00000000E+00  0.00000000E+00  0.00000000E+00
  0.00000000E+00  0.00000000E+00  0.00000000E+00
  0.00000000E+00  0.00000000E+00  0.00000000E+00
  0.00000000E+00  0.00000000E+00  0.00000000E+00
  0.00000000E+00  0.00000000E+00  0.00000000E+00
  0.00000000E+00  0.00000000E+00  0.00000000E+00
  0.00000000E+00  0.00000000E+00  0.00000000E+00
  0.00000000E+00  0.00000000E+00  0.00000000E+00
  0.00000000E+00  0.00000000E+00  0.00000000E+00
  0.00000000E+00  0.00000000E+00  0.00000000E+00
  0.00000000E+00  0.00000000E+00  0.00000000E+00
  0.00000000E+00  0.00000000E+00  0.00000000E+00
  0.00000000E+00  0.00000000E+00  0.00000000E+00
  0.00000000E+00  0.00000000E+00  0.00000000E+00
  0.00000000E+00  0.00000000E+00  0.00000000E+00
  0.00000000E+00  0.00000000E+00  0.00000000E+00
  0.00000000E+00  0.00000000E+00  0.00000000E+00
  0.00000000E+00  0.00000000E+00  0.00000000E+00
  0.00000000E+00  0.00000000E+00  0.00000000E+00
  0.00000000E+00  0.00000000E+00  0.00000000E+00
  0.00000000E+00  0.00000000E+00  0.00000000E+00
  0.00000000E+00  0.00000000E+00  0.00000000E+00
  0.00000000E+00  0.00000000E+00  0.00000000E+00
  0.00000000E+00  0.00000000E+00  0.00000000E+00
  0.00000000E+00  0.00000000E+00  0.00000000E+00
  0.00000000E+00  0.00000000E+00  0.00000000E+00
  0.00000000E+00  0.00000000E+00  0.00000000E+00
  0.00000000E+00  0.00000000E+00  0.00000000E+00
  0.00000000E+00  0.00000000E+00  0.00000000E+00
  0.00000000E+00  0.00000000E+00  0.00000000E+00
  0.00000000E+00  0.00000000E+00  0.00000000E+00
  0.00000000E+00  0.00000000E+00  0.00000000E+00
  0.00000000E+00  0.00000000E+00  0.00000000E+00
  0.00000000E+00  0.00000000E+00  0.00000000E+00
  0.00000000E+00  0.00000000E+00  0.00000000E+00
  0.00000000E+00  0.00000000E+00  0.00000000E+00
  0.00000000E+00  0.00000000E+00  0.00000000E+00
  0.00000000E+00  0.00000000E+00  0.00000000E+00
  0.00000000E+00  0.00000000E+00  0.00000000E+00
  0.00000000E+00  0.00000000E+00  0.00000000E+00
  0.00000000E+00  0.00000000E+00  0.00000000E+00
  0.00000000E+00  0.00000000E+00  0.00000000E+00
  0.00000000E+00  0.00000000E+00  0.00000000E+00
  0.00000000E+00  0.00000000E+00  0.00000000E+00
  0.00000000E+00  0.00000000E+00  0.00000000E+00
  0.00000000E+00  0.00000000E+00  0.00000000E+00
  0.00000000E+00  0.00000000E+00  0.00000000E+00
  0.00000000E+00  0.00000000E+00  0.00000000E+00
  0.00000000E+00  0.00000000E+00  0.00000000E+00
  0.00000000E+00  0.00000000E+00  0.00000000E+00
  0.00000000E+00  0.00000000E+00  0.00000000E+00
  0.00000000E+00  0.00000000E+00  0.00000000E+00
  0.00000000E+00  0.00000000E+00  0.00000000E+00
  0.00000000E+00  0.00000000E+00  0.00000000E+00
  0.00000000E+00  0.00000000E+00  0.00000000E+00
  0.00000000E+00  0.00000000E+00  0.00000000E+00
  0.00000000E+00  0.00000000E+00  0.00000000E+00
  0.00000000E+00  0.00000000E+00  0.00000000E+00
  0.00000000E+00  0.00000000E+00  0.00000000E+00
  0.00000000E+00  0.00000000E+00  0.00000000E+00
  0.00000000E+00  0.00000000E+00  0.00000000E+00
  0.00000000E+00  0.00000000E+00  0.00000000E+00
  0.00000000E+00  0.00000000E+00  0.00000000E+00
  0.00000000E+00  0.00000000E+00  0.00000000E+00
  0.00000000E+00  0.00000000E+00  0.00000000E+00
  0.00000000E+00  0.00000000E+00  0.00000000E+00
  0.00000000E+00  0.00000000E+00  0.00000000E+00
  0.00000000E+00  0.00000000E+00  0.00000000E+00
  0.00000000E+00  0.00000000E+00  0.00000000E+00
  0.00000000E+00  0.00000000E+00  0.00000000E+00
  0.00000000E+00  0.00000000E+00  0.00000000E+00
  0.00000000E+00  0.00000000E+00  0.00000000E+00
  0.00000000E+00  0.00000000E+00  0.00000000E+00
  0.00000000E+00  0.00000000E+00  0.00000000E+00
  0.00000000E+00  0.00000000E+00  0.00000000E+00
  0.00000000E+00  0.00000000E+00  0.00000000E+00
  0.00000000E+00  0.00000000E+00  0.00000000E+00
  0.00000000E+00  0.00000000E+00  0.00000000E+00
  0.00000000E+00  0.00000000E+00  0.00000000E+00
  0.00000000E+00  0.00000000E+00  0.00000000E+00
  0.00000000E+00  0.00000000E+00  0.00000000E+00
  0.00000000E+00  0.00000000E+00  0.00000000E+00
  0.00000000E+00  0.00000000E+00  0.00000000E+00
  0.00000000E+00  0.00000000E+00  0.00000000E+00
  0.00000000E+00  0.00000000E+00  0.00000000E+00
  0.00000000E+00  0.00000000E+00  0.00000000E+00
  0.00000000E+00  0.00000000E+00  0.00000000E+00
  0.00000000E+00  0.00000000E+00  0.00000000E+00
  0.00000000E+00  0.00000000E+00  0.00000000E+00
  0.00000000E+00  0.00000000E+00  0.00000000E+00
  0.00000000E+00  0.00000000E+00  0.00000000E+00
  0.00000000E+00  0.00000000E+00  0.00000000E+00
  0.00000000E+00  0.00000000E+00  0.00000000E+00
  0.00000000E+00  0.00000000E+00  0.00000000E+00
  0.00000000E+00  0.00000000E+00  0.00000000E+00
  0.00000000E+00  0.00000000E+00  0.00000000E+00
  0.00000000E+00  0.00000000E+00  0.00000000E+00
  0.00000000E+00  0.00000000E+00  0.00000000E+00
  0.00000000E+00  0.00000000E+00  0.00000000E+00
  0.00000000E+00  0.00000000E+00  0.00000000E+00
  0.00000000E+00  0.00000000E+00  0.00000000E+00
  0.00000000E+00  0.00000000E+00  0.00000000E+00
  0.00000000E+00  0.00000000E+00  0.00000000E+00
  0.00000000E+00  0.00000000E+00  0.00000000E+00
