This file is generated by VASPKIT code  
   1.00000000000000     
    12.6406764983999995    0.0000000000000000    0.0000000000000000
     0.0000000000000000   18.2475891113000017    0.0000000000000000
     0.0000000000000000    0.0000000000000000   50.0000000000000000
   Cs   Pb   I 
    24    24    72
Direct
  0.2500000000316405  0.4587390790799310  0.1674407739731892
  0.2500000000316405  0.4618501258026931  0.3441591648340436
  0.2500000000316405  0.4658312114790401  0.5187154630438904
  0.2500000000316405  0.9587390492869593  0.1674407739731892
  0.2500000000316405  0.9618500960097214  0.3441591648340436
  0.2500000000316405  0.9658311816860686  0.5187154630438904
  0.7500000595854175  0.0300265998907596  0.1751109815776453
  0.7500000595854175  0.0329681084585680  0.3523788324876581
  0.7500000595854175  0.0182440275009411  0.5221950844558209
  0.7500000595854175  0.5300265942653571  0.1751109815776453
  0.7500000595854175  0.5329681028331656  0.3523788324876581
  0.7500000595854175  0.5182440218755385  0.5221950844558209
  0.7500000595854175  0.2682440218659461  0.0861887051841806
  0.7500000595854175  0.2829681028235733  0.2560049422723419
  0.7500000595854175  0.2800265942557649  0.4332728229823537
  0.7500000595854175  0.7682440218851238  0.0861887051841806
  0.7500000595854175  0.7829681028427509  0.2560049422723419
  0.7500000595854175  0.7800265942749424  0.4332728229823537
  0.2500000000316405  0.2158312263755329  0.0896683415161087
  0.2500000000316405  0.2118501406991859  0.2642246099259564
  0.2500000000316405  0.2087390939764239  0.4409430007868108
  0.2500000000316405  0.7158312413007889  0.0896683415161087
  0.2500000000316405  0.7118501556244416  0.2642246099259564
  0.2500000000316405  0.7087391089016796  0.4409430007868108
  0.0016332072660052  0.0206017380794153  0.0862485438434201
  0.0006833425274272  0.0035057370528192  0.2612002167531632
  0.0006945847027827  0.0065666278640858  0.4354980174056216
  0.0016332072660052  0.5206017380985929  0.0862485438434201
  0.0006833425274272  0.5035057370719965  0.2612002167531632
  0.0006945847027827  0.5065666278832631  0.4354980174056216
  0.0006945847027827  0.2565666278736783  0.1728857871543845
  0.0006833425274272  0.2535057370624117  0.3471835877868340
  0.0016332072660052  0.2706017380890075  0.5221352309165800
  0.0006945847027827  0.7565666278380513  0.1728857871543845
  0.0006833425274272  0.7535057370267847  0.3471835877868340
  0.0016332072660052  0.7706017380533811  0.5221352309165800
  0.4983667927181711  0.0206017380794153  0.0862485438434201
  0.4993166574567491  0.0035057370528192  0.2612002167531632
  0.4993054152813935  0.0065666278640858  0.4354980174056216
  0.4983667927181711  0.5206017380985929  0.0862485438434201
  0.4993166574567491  0.5035057370719965  0.2612002167531632
  0.4993054152813935  0.5065666278832631  0.4354980174056216
  0.4993054152813935  0.2565666278736783  0.1728857871543845
  0.4993166574567491  0.2535057370624117  0.3471835877868340
  0.4983667927181711  0.2706017380890075  0.5221352309165800
  0.4993054152813935  0.7565666278380513  0.1728857871543845
  0.4993166574567491  0.7535057370267847  0.3471835877868340
  0.4983667927181711  0.7706017380533811  0.5221352309165800
  0.2500000000316405  0.2506082949212511  0.1865118930867827
  0.2500000000316405  0.2528069558792544  0.3628815879602061
  0.2500000000316405  0.2490058130860594  0.5348422487587624
  0.2500000000316405  0.7506082948856313  0.1865118930867827
  0.2500000000316405  0.7528069558436350  0.3628815879602061
  0.2500000000316405  0.7490058130504399  0.5348422487587624
  0.7500000595854175  0.2412316651197326  0.1619163088192170
  0.7500000595854175  0.2413368868316241  0.3334537424289228
  0.7500000595854175  0.2366523616240282  0.5137643168329978
  0.7500000595854175  0.7412316800449952  0.1619163088192170
  0.7500000595854175  0.7413369017568867  0.3334537424289228
  0.7500000595854175  0.7366523765492912  0.5137643168329978
  0.7500000595854175  0.4866523765396987  0.0946194653870045
  0.7500000595854175  0.4913369017472945  0.2749300621310762
  0.7500000595854175  0.4912316800354032  0.4464674957407892
  0.7500000595854175  0.9866524957527117  0.0946194653870045
  0.7500000595854175  0.9913370209603072  0.2749300621310762
  0.7500000595854175  0.9912317992484156  0.4464674957407892
  0.2500000000316405 -0.0009941834162157  0.0735415632612395
  0.2500000000316405  0.0028069593769793  0.2455022165997926
  0.2500000000316405  0.0006082984189760  0.4218719114732163
  0.2500000000316405  0.4990058130408477  0.0735415632612395
  0.2500000000316405  0.5028069558340427  0.2455022165997926
  0.2500000000316405  0.5006082948760391  0.4218719114732163
  0.0350900992440860  0.0970354158840645  0.1400080168719348
  0.0417649570195779  0.0992622637529669  0.3133456529390334
  0.0339164945700377  0.0984180536520758  0.4880181817172201
  0.0350900992440860  0.5970354457153987  0.1400080168719348
  0.0417649570195779  0.5992622935843008  0.3133456529390334
  0.0339164945700377  0.5984180834834099  0.4880181817172201
  0.9626810403196869  0.3995667929526045  0.2073543286255252
  0.9623113871445768  0.3966973077012718  0.3824299181052497
  0.9826973169841130  0.4086954394817516  0.5548653639260654
  0.9626810403196869  0.8995667631596261  0.2073543286255252
  0.9623113871445768  0.8966972779082930  0.3824299181052497
  0.9826973169841130  0.9086954096887725  0.5548653639260654
  0.9826973169841130  0.1586954394721591  0.0535184219939324
  0.9623113871445768  0.1466973076916795  0.2259538864547564
  0.9626810403196869  0.1495667929430121  0.4010294610344780
  0.9826973169841130  0.6586954096791873  0.0535184219939324
  0.9623113871445768  0.6466972778987078  0.2259538864547564
  0.9626810403196869  0.6495667631500409  0.4010294610344780
  0.0339164945700377  0.3484180536616610  0.1203656377427746
  0.0417649570195779  0.3492622637625521  0.2950381516209656
  0.0350900992440860  0.3470354158936497  0.4683757727880683
  0.0339164945700377  0.8484180834930022  0.1203656377427746
  0.0417649570195779  0.8492622935938932  0.2950381516209656
  0.0350900992440860  0.8470354457249910  0.4683757727880683
  0.5373189000632551  0.3995667929526045  0.2073543286255252
  0.5376885532383653  0.3966973077012718  0.3824299181052497
  0.5173026233988290  0.4086954394817516  0.5548653639260654
  0.5373189000632551  0.8995667631596261  0.2073543286255252
  0.5376885532383653  0.8966972779082930  0.3824299181052497
  0.5173026233988290  0.9086954096887725  0.5548653639260654
  0.4649099194099769  0.0970354158840645  0.1400080168719348
  0.4582350616344852  0.0992622637529669  0.3133456529390334
  0.4660835240840254  0.0984180536520758  0.4880181817172201
  0.4649099194099769  0.5970354457153987  0.1400080168719348
  0.4582350616344852  0.5992622935843008  0.3133456529390334
  0.4660835240840254  0.5984180834834099  0.4880181817172201
  0.4660835240840254  0.3484180536616610  0.1203656377427746
  0.4582350616344852  0.3492622637625521  0.2950381516209656
  0.4649099194099769  0.3470354158936497  0.4683757727880683
  0.4660835240840254  0.8484180834930022  0.1203656377427746
  0.4582350616344852  0.8492622935938932  0.2950381516209656
  0.4649099194099769  0.8470354457249910  0.4683757727880683
  0.5173026233988290  0.1586954394721591  0.0535184219939324
  0.5376885532383653  0.1466973076916795  0.2259538864547564
  0.5373189000632551  0.1495667929430121  0.4010294610344780
  0.5173026233988290  0.6586954096791873  0.0535184219939324
  0.5376885532383653  0.6466972778987078  0.2259538864547564
  0.5373189000632551  0.6495667631500409  0.4010294610344780
 
  0.00000000E+00  0.00000000E+00  0.00000000E+00
  0.00000000E+00  0.00000000E+00  0.00000000E+00
  0.00000000E+00  0.00000000E+00  0.00000000E+00
  0.00000000E+00  0.00000000E+00  0.00000000E+00
  0.00000000E+00  0.00000000E+00  0.00000000E+00
  0.00000000E+00  0.00000000E+00  0.00000000E+00
  0.00000000E+00  0.00000000E+00  0.00000000E+00
  0.00000000E+00  0.00000000E+00  0.00000000E+00
  0.00000000E+00  0.00000000E+00  0.00000000E+00
  0.00000000E+00  0.00000000E+00  0.00000000E+00
  0.00000000E+00  0.00000000E+00  0.00000000E+00
  0.00000000E+00  0.00000000E+00  0.00000000E+00
  0.00000000E+00  0.00000000E+00  0.00000000E+00
  0.00000000E+00  0.00000000E+00  0.00000000E+00
  0.00000000E+00  0.00000000E+00  0.00000000E+00
  0.00000000E+00  0.00000000E+00  0.00000000E+00
  0.00000000E+00  0.00000000E+00  0.00000000E+00
  0.00000000E+00  0.00000000E+00  0.00000000E+00
  0.00000000E+00  0.00000000E+00  0.00000000E+00
  0.00000000E+00  0.00000000E+00  0.00000000E+00
  0.00000000E+00  0.00000000E+00  0.00000000E+00
  0.00000000E+00  0.00000000E+00  0.00000000E+00
  0.00000000E+00  0.00000000E+00  0.00000000E+00
  0.00000000E+00  0.00000000E+00  0.00000000E+00
  0.00000000E+00  0.00000000E+00  0.00000000E+00
  0.00000000E+00  0.00000000E+00  0.00000000E+00
  0.00000000E+00  0.00000000E+00  0.00000000E+00
  0.00000000E+00  0.00000000E+00  0.00000000E+00
  0.00000000E+00  0.00000000E+00  0.00000000E+00
  0.00000000E+00  0.00000000E+00  0.00000000E+00
  0.00000000E+00  0.00000000E+00  0.00000000E+00
  0.00000000E+00  0.00000000E+00  0.00000000E+00
  0.00000000E+00  0.00000000E+00  0.00000000E+00
  0.00000000E+00  0.00000000E+00  0.00000000E+00
  0.00000000E+00  0.00000000E+00  0.00000000E+00
  0.00000000E+00  0.00000000E+00  0.00000000E+00
  0.00000000E+00  0.00000000E+00  0.00000000E+00
  0.00000000E+00  0.00000000E+00  0.00000000E+00
  0.00000000E+00  0.00000000E+00  0.00000000E+00
  0.00000000E+00  0.00000000E+00  0.00000000E+00
  0.00000000E+00  0.00000000E+00  0.00000000E+00
  0.00000000E+00  0.00000000E+00  0.00000000E+00
  0.00000000E+00  0.00000000E+00  0.00000000E+00
  0.00000000E+00  0.00000000E+00  0.00000000E+00
  0.00000000E+00  0.00000000E+00  0.00000000E+00
  0.00000000E+00  0.00000000E+00  0.00000000E+00
  0.00000000E+00  0.00000000E+00  0.00000000E+00
  0.00000000E+00  0.00000000E+00  0.00000000E+00
  0.00000000E+00  0.00000000E+00  0.00000000E+00
  0.00000000E+00  0.00000000E+00  0.00000000E+00
  0.00000000E+00  0.00000000E+00  0.00000000E+00
  0.00000000E+00  0.00000000E+00  0.00000000E+00
  0.00000000E+00  0.00000000E+00  0.00000000E+00
  0.00000000E+00  0.00000000E+00  0.00000000E+00
  0.00000000E+00  0.00000000E+00  0.00000000E+00
  0.00000000E+00  0.00000000E+00  0.00000000E+00
  0.00000000E+00  0.00000000E+00  0.00000000E+00
  0.00000000E+00  0.00000000E+00  0.00000000E+00
  0.00000000E+00  0.00000000E+00  0.00000000E+00
  0.00000000E+00  0.00000000E+00  0.00000000E+00
  0.00000000E+00  0.00000000E+00  0.00000000E+00
  0.00000000E+00  0.00000000E+00  0.00000000E+00
  0.00000000E+00  0.00000000E+00  0.00000000E+00
  0.00000000E+00  0.00000000E+00  0.00000000E+00
  0.00000000E+00  0.00000000E+00  0.00000000E+00
  0.00000000E+00  0.00000000E+00  0.00000000E+00
  0.00000000E+00  0.00000000E+00  0.00000000E+00
  0.00000000E+00  0.00000000E+00  0.00000000E+00
  0.00000000E+00  0.00000000E+00  0.00000000E+00
  0.00000000E+00  0.00000000E+00  0.00000000E+00
  0.00000000E+00  0.00000000E+00  0.00000000E+00
  0.00000000E+00  0.00000000E+00  0.00000000E+00
  0.00000000E+00  0.00000000E+00  0.00000000E+00
  0.00000000E+00  0.00000000E+00  0.00000000E+00
  0.00000000E+00  0.00000000E+00  0.00000000E+00
  0.00000000E+00  0.00000000E+00  0.00000000E+00
  0.00000000E+00  0.00000000E+00  0.00000000E+00
  0.00000000E+00  0.00000000E+00  0.00000000E+00
  0.00000000E+00  0.00000000E+00  0.00000000E+00
  0.00000000E+00  0.00000000E+00  0.00000000E+00
  0.00000000E+00  0.00000000E+00  0.00000000E+00
  0.00000000E+00  0.00000000E+00  0.00000000E+00
  0.00000000E+00  0.00000000E+00  0.00000000E+00
  0.00000000E+00  0.00000000E+00  0.00000000E+00
  0.00000000E+00  0.00000000E+00  0.00000000E+00
  0.00000000E+00  0.00000000E+00  0.00000000E+00
  0.00000000E+00  0.00000000E+00  0.00000000E+00
  0.00000000E+00  0.00000000E+00  0.00000000E+00
  0.00000000E+00  0.00000000E+00  0.00000000E+00
  0.00000000E+00  0.00000000E+00  0.00000000E+00
  0.00000000E+00  0.00000000E+00  0.00000000E+00
  0.00000000E+00  0.00000000E+00  0.00000000E+00
  0.00000000E+00  0.00000000E+00  0.00000000E+00
  0.00000000E+00  0.00000000E+00  0.00000000E+00
  0.00000000E+00  0.00000000E+00  0.00000000E+00
  0.00000000E+00  0.00000000E+00  0.00000000E+00
  0.00000000E+00  0.00000000E+00  0.00000000E+00
  0.00000000E+00  0.00000000E+00  0.00000000E+00
  0.00000000E+00  0.00000000E+00  0.00000000E+00
  0.00000000E+00  0.00000000E+00  0.00000000E+00
  0.00000000E+00  0.00000000E+00  0.00000000E+00
  0.00000000E+00  0.00000000E+00  0.00000000E+00
  0.00000000E+00  0.00000000E+00  0.00000000E+00
  0.00000000E+00  0.00000000E+00  0.00000000E+00
  0.00000000E+00  0.00000000E+00  0.00000000E+00
  0.00000000E+00  0.00000000E+00  0.00000000E+00
  0.00000000E+00  0.00000000E+00  0.00000000E+00
  0.00000000E+00  0.00000000E+00  0.00000000E+00
  0.00000000E+00  0.00000000E+00  0.00000000E+00
  0.00000000E+00  0.00000000E+00  0.00000000E+00
  0.00000000E+00  0.00000000E+00  0.00000000E+00
  0.00000000E+00  0.00000000E+00  0.00000000E+00
  0.00000000E+00  0.00000000E+00  0.00000000E+00
  0.00000000E+00  0.00000000E+00  0.00000000E+00
  0.00000000E+00  0.00000000E+00  0.00000000E+00
  0.00000000E+00  0.00000000E+00  0.00000000E+00
  0.00000000E+00  0.00000000E+00  0.00000000E+00
  0.00000000E+00  0.00000000E+00  0.00000000E+00
  0.00000000E+00  0.00000000E+00  0.00000000E+00
  0.00000000E+00  0.00000000E+00  0.00000000E+00
