This file is generated by VASPKIT code  
   1.00000000000000     
    12.6406764983999995    0.0000000000000000    0.0000000000000000
     0.0000000000000000   25.2016296386999983    0.0000000000000000
     0.0000000000000000    1.8348134680999999   51.7578896671000024
   Cs   Pb   I 
    32    32   104
Direct
  0.2500000000316405  0.4987279567441982  0.2343644452286730
  0.2500000000316405  0.5047457676328470  0.4810611631169486
  0.2500000000316405  0.9969135717248729  0.2363201321636998
  0.2500000000316405  0.0037624982595432  0.4794833787045746
  0.2500000000316405  0.2505516810669265  0.1211054793196924
  0.2500000000316405  0.2512183357305732  0.3579102733048630
  0.2500000000316405  0.2613238988544191  0.5979874416939444
  0.2500000000316405  0.7509595373700413  0.3578466218471975
  0.7500000595854175  0.0146874423629829  0.2497613901450994
  0.7500000595854175  0.0205321345859898  0.4933804342474238
  0.7500000595854175  0.5155545058378276  0.2485707139263871
  0.7500000595854175  0.5221915018429082  0.4950082810509472
  0.7500000595854175  0.2652225489284666  0.1310391224942494
  0.7500000595854175  0.2691416121930670  0.3715833515955833
  0.7500000595854175  0.2771146849353961  0.6086709767268697
  0.7500000595854175  0.7686048288810002  0.3716637692799435
  0.7500000595854175  0.0166776495531405  0.1306317620862673
  0.7500000595854175  0.0241961262458950  0.3692298415999370
  0.7500000595854175  0.0290275653863445  0.6059855749263704
  0.7500000595854175  0.5244250904690073  0.3692297684577877
  0.7500000595854175  0.2724495422799658  0.2470477743108791
  0.7500000595854175  0.2785675716680220  0.4909559833642551
  0.7500000595854175  0.7702595866922970  0.2464684560130414
  0.7500000595854175  0.7774030496872141  0.4919479688813479
  0.2500000000316405  0.4953207875942018  0.3602709152855017
  0.2500000000316405  0.9797405394103739  0.1235877081307818
  0.2500000000316405  0.9952046555584595  0.3603063880546628
  0.2500000000316405 -0.0059604002568083  0.5989135603170926
  0.2500000000316405  0.2423489588747629  0.2386744929786568
  0.2500000000316405  0.2494623768922011  0.4821383427370640
  0.2500000000316405  0.7416236045954455  0.2373659653681062
  0.2500000000316405  0.7479260661983237  0.4832552396437932
  0.9995496400649633  0.3837257255629428  0.3032386889400674
  0.0026839195552635  0.3943937078662886  0.5511370431308020
  0.9992039526541379  0.8835586084832980  0.3031398834644858
  0.0032033540018733  0.8822253179735206  0.5514800169716478
  0.9982422079321621  0.1321997713272255  0.1795857659144252
  0.0004332463222724  0.1362238890570119  0.4261469719449635
  0.9951472926412173  0.6305994905489698  0.1780174973498151
  0.0009652426813395  0.6361383457198082  0.4264210810607261
  0.0002642739299841  0.1326176320432079  0.3034596256476632
  0.9994604660969909  0.1423122847226372  0.5500689255728860
  0.0007115794818215  0.6323262426622328  0.3032099781574688
  0.0020639305795797  0.6410864560555656  0.5522430367381059
  0.0023249343667467  0.3831818806130058  0.1778844848818384
  0.9997245968513685  0.3873707631539848  0.4261424537622226
 -0.0004826963847792  0.8727942799919448  0.1777963167788550
  0.9994979305019422  0.8871291180225984  0.4262967713091023
  0.5004503599192129  0.3837257255629428  0.3032386889400674
  0.4973160804289127  0.3943937078662886  0.5511370431308020
  0.5007960473300384  0.8835586084832980  0.3031398834644858
  0.4967966459823029  0.8822253179735206  0.5514800169716478
  0.5017577920520141  0.1321997713272255  0.1795857659144252
  0.4995667536619038  0.1362238890570119  0.4261469719449635
  0.5048527073429590  0.6305994905489698  0.1780174973498151
  0.4990347573028368  0.6361383457198082  0.4264210810607261
  0.4997357260541921  0.1326176320432079  0.3034596256476632
  0.5005395338871853  0.1423122847226372  0.5500689255728860
  0.4992884205023548  0.6323262426622328  0.3032099781574688
  0.4979360694045965  0.6410864560555656  0.5522430367381059
  0.4976750656174295  0.3831818806130058  0.1778844848818384
  0.5002754031328077  0.3873707631539848  0.4261424537622226
  0.5004826963689554  0.8727942799919448  0.1777963167788550
  0.5005020694822340  0.8871291180225984  0.4262967713091023
  0.2500000000316405  0.1223222507283897  0.3127474591033046
  0.2500000000316405  0.1276151207549142  0.5563757034007488
  0.2500000000316405  0.6227655987100117  0.3129193265369164
  0.2500000000316405  0.6300652303082215  0.5521307297742829
  0.2500000000316405  0.3677108124222556  0.1913607707815458
  0.2500000000316405  0.3755090336064086  0.4336275064141291
  0.2500000000316405  0.8745473818827919  0.1918718591916057
  0.2500000000316405  0.8755302255701981  0.4336761598837664
  0.7500000595854175  0.3868019074606838  0.1768318733120814
  0.7500000595854175  0.3969019957195433  0.4165804102344551
  0.7500000595854175  0.8945613161672413  0.1765932784158457
  0.7500000595854175  0.8970589305261354  0.4165186554916846
  0.7500000595854175  0.1441724565377261  0.2955607479557981
  0.7500000595854175  0.1500512812603083  0.5386320473422940
  0.7500000595854175  0.6443078931866825  0.2959508345416520
  0.7500000595854175  0.6479929047371265  0.5371447700897481
  0.7500000595854175  0.1113086479426050  0.1875821151864010
  0.7500000595854175  0.1190746179394927  0.4309743963898792
  0.7500000595854175  0.6167227915154143  0.1907437010915025
  0.7500000595854175  0.6195776474810186  0.4306215208165790
  0.7500000595854175  0.3658607248659416  0.3098720195010972
  0.7500000595854175  0.3725133084848848  0.5502432100983196
  0.7500000595854175  0.8660869096614694  0.3098880083470691
  0.7500000595854175  0.8787742731835798  0.5510670567602109
  0.2500000000316405  0.4003696128956785  0.2986542217567328
  0.2500000000316405  0.4006631756149391  0.5400018720003211
  0.2500000000316405  0.9001538808312400  0.2988682615638943
  0.2500000000316405  0.9084355972469315  0.5403364049671004
  0.2500000000316405  0.1465107844786414  0.1763736222030629
  0.2500000000316405  0.1538192013086301  0.4198084939975238
  0.2500000000316405  0.6442008389998222  0.1783283971817921
  0.2500000000316405  0.6536718138682375  0.4195431092845214
  0.0200863482644053  0.3530018917452404  0.1214482559403558
  0.0273830072734468  0.3612019873054175  0.3652248370472764
  0.0195628283498703  0.3620776947365592  0.6087452033843035
  0.0304429186038918  0.8674547424229925  0.1208252270474172
  0.0271867003603565  0.8618232843530387  0.3651885845532556
  0.0290730892180602  0.8758930288563102  0.6090027423183789
  0.0278503494996079  0.1078415638422018  0.2436767392402513
  0.0275946437602361  0.1137139087201705  0.4866999212637772
  0.0265603502360506  0.6098031784604971  0.2448097355806368
  0.0264715553722929  0.6152004504274535  0.4855457280935779
  0.9746483629984856  0.1505646557522472  0.1197009056380070
  0.9719035594649176  0.1588369349995344  0.3643491962579721
  0.9722768321866714  0.1588275228974994  0.6092616291014962
  0.9785079210756826  0.6510307714581647  0.1224335482393799
  0.9729456513070294  0.6579108155836111  0.3643078334528687
  0.9755126447908538  0.6607570173689089  0.6069368622071178
  0.9729018536022224  0.4050387846300560  0.2432682254679336
  0.9724312738466395  0.4102825096489217  0.4855079941907758
  0.9732075399870930  0.9056674466191016  0.2435893887177230
  0.9737572045335906  0.9109545232183408  0.4852664954864581
  0.9717964489613407  0.5076755837408944  0.3163881992741863
  0.9671044816601175  0.5142844433757161  0.5578139908203752
  0.9716697810997984  0.0078251159197565  0.3163431706590417
  0.9742237771856997  0.0150666654078186  0.5595385818641432
  0.9737727059909310  0.2562112545127078  0.1942489052489543
  0.9713485157751548  0.2610466834684965  0.4374511485626307
  0.9787072377251573  0.7518251586390109  0.1963407937308262
  0.9710954524471216  0.7608020744255352  0.4373241608722215
  0.0257925041007451  0.0058800915942154  0.1699895903810542
  0.0282197938720283  0.0122876129047070  0.4131468844078217
  0.0312421683797222  0.5056994458981240  0.1713238059129626
  0.0280639650463171  0.5120596931504210  0.4130989211956314
  0.0285820402547230  0.2586490149898699  0.2920959421677317
  0.0267548811598058  0.2670642846289802  0.5354035231308215
  0.0287881744559233  0.7584151934386324  0.2921369294279866
  0.0208646035172976  0.7637605768604078  0.5331133454196306
  0.5253516370331620  0.1505646557522472  0.1197009056380070
  0.5280964405667300  0.1588369349995344  0.3643491962579721
  0.5277231678449762  0.1588275228974994  0.6092616291014962
  0.5214920789559649  0.6510307714581647  0.1224335482393799
  0.5270543487246182  0.6579108155836111  0.3643078334528687
  0.5244873552407938  0.6607570173689089  0.6069368622071178
  0.5270981464294252  0.4050387846300560  0.2432682254679336
  0.5275687261850081  0.4102825096489217  0.4855079941907758
  0.5267924600445546  0.9056674466191016  0.2435893887177230
  0.5262427954980570  0.9109545232183408  0.4852664954864581
  0.4799136405653086  0.3530018917452404  0.1214482559403558
  0.4726169815562671  0.3612019873054175  0.3652248370472764
  0.4804371604798437  0.3620776947365592  0.6087452033843035
  0.4695570702258221  0.8674547424229925  0.1208252270474172
  0.4728132884693576  0.8618232843530387  0.3651885845532556
  0.4709268996116537  0.8758930288563102  0.6090027423183789
  0.4721496393301061  0.1078415638422018  0.2436767392402513
  0.4724053450694780  0.1137139087201705  0.4866999212637772
  0.4734396385936634  0.6098031784604971  0.2448097355806368
  0.4735284334574211  0.6152004504274535  0.4855457280935779
  0.4742074847289689  0.0058800915942154  0.1699895903810542
  0.4717801949576857  0.0122876129047070  0.4131468844078217
  0.4687578204499918  0.5056994458981240  0.1713238059129626
  0.4719360237833969  0.5120596931504210  0.4130989211956314
  0.4714179485749910  0.2586490149898699  0.2920959421677317
  0.4732451076699081  0.2670642846289802  0.5354035231308215
  0.4712118143737907  0.7584151934386324  0.2921369294279866
  0.4791353853124164  0.7637605768604078  0.5331133454196306
  0.5282035510703069  0.5076755837408944  0.3163881992741863
  0.5328955183715300  0.5142844433757161  0.5578139908203752
  0.5283302189318492  0.0078251159197565  0.3163431706590417
  0.5257762228459478  0.0150666654078186  0.5595385818641432
  0.5262272940407166  0.2562112545127078  0.1942489052489543
  0.5286514842564928  0.2610466834684965  0.4374511485626307
  0.5212927623064902  0.7518251586390109  0.1963407937308262
  0.5289045475845260  0.7608020744255352  0.4373241608722215
 
  0.00000000E+00  0.00000000E+00  0.00000000E+00
  0.00000000E+00  0.00000000E+00  0.00000000E+00
  0.00000000E+00  0.00000000E+00  0.00000000E+00
  0.00000000E+00  0.00000000E+00  0.00000000E+00
  0.00000000E+00  0.00000000E+00  0.00000000E+00
  0.00000000E+00  0.00000000E+00  0.00000000E+00
  0.00000000E+00  0.00000000E+00  0.00000000E+00
  0.00000000E+00  0.00000000E+00  0.00000000E+00
  0.00000000E+00  0.00000000E+00  0.00000000E+00
  0.00000000E+00  0.00000000E+00  0.00000000E+00
  0.00000000E+00  0.00000000E+00  0.00000000E+00
  0.00000000E+00  0.00000000E+00  0.00000000E+00
  0.00000000E+00  0.00000000E+00  0.00000000E+00
  0.00000000E+00  0.00000000E+00  0.00000000E+00
  0.00000000E+00  0.00000000E+00  0.00000000E+00
  0.00000000E+00  0.00000000E+00  0.00000000E+00
  0.00000000E+00  0.00000000E+00  0.00000000E+00
  0.00000000E+00  0.00000000E+00  0.00000000E+00
  0.00000000E+00  0.00000000E+00  0.00000000E+00
  0.00000000E+00  0.00000000E+00  0.00000000E+00
  0.00000000E+00  0.00000000E+00  0.00000000E+00
  0.00000000E+00  0.00000000E+00  0.00000000E+00
  0.00000000E+00  0.00000000E+00  0.00000000E+00
  0.00000000E+00  0.00000000E+00  0.00000000E+00
  0.00000000E+00  0.00000000E+00  0.00000000E+00
  0.00000000E+00  0.00000000E+00  0.00000000E+00
  0.00000000E+00  0.00000000E+00  0.00000000E+00
  0.00000000E+00  0.00000000E+00  0.00000000E+00
  0.00000000E+00  0.00000000E+00  0.00000000E+00
  0.00000000E+00  0.00000000E+00  0.00000000E+00
  0.00000000E+00  0.00000000E+00  0.00000000E+00
  0.00000000E+00  0.00000000E+00  0.00000000E+00
  0.00000000E+00  0.00000000E+00  0.00000000E+00
  0.00000000E+00  0.00000000E+00  0.00000000E+00
  0.00000000E+00  0.00000000E+00  0.00000000E+00
  0.00000000E+00  0.00000000E+00  0.00000000E+00
  0.00000000E+00  0.00000000E+00  0.00000000E+00
  0.00000000E+00  0.00000000E+00  0.00000000E+00
  0.00000000E+00  0.00000000E+00  0.00000000E+00
  0.00000000E+00  0.00000000E+00  0.00000000E+00
  0.00000000E+00  0.00000000E+00  0.00000000E+00
  0.00000000E+00  0.00000000E+00  0.00000000E+00
  0.00000000E+00  0.00000000E+00  0.00000000E+00
  0.00000000E+00  0.00000000E+00  0.00000000E+00
  0.00000000E+00  0.00000000E+00  0.00000000E+00
  0.00000000E+00  0.00000000E+00  0.00000000E+00
  0.00000000E+00  0.00000000E+00  0.00000000E+00
  0.00000000E+00  0.00000000E+00  0.00000000E+00
  0.00000000E+00  0.00000000E+00  0.00000000E+00
  0.00000000E+00  0.00000000E+00  0.00000000E+00
  0.00000000E+00  0.00000000E+00  0.00000000E+00
  0.00000000E+00  0.00000000E+00  0.00000000E+00
  0.00000000E+00  0.00000000E+00  0.00000000E+00
  0.00000000E+00  0.00000000E+00  0.00000000E+00
  0.00000000E+00  0.00000000E+00  0.00000000E+00
  0.00000000E+00  0.00000000E+00  0.00000000E+00
  0.00000000E+00  0.00000000E+00  0.00000000E+00
  0.00000000E+00  0.00000000E+00  0.00000000E+00
  0.00000000E+00  0.00000000E+00  0.00000000E+00
  0.00000000E+00  0.00000000E+00  0.00000000E+00
  0.00000000E+00  0.00000000E+00  0.00000000E+00
  0.00000000E+00  0.00000000E+00  0.00000000E+00
  0.00000000E+00  0.00000000E+00  0.00000000E+00
  0.00000000E+00  0.00000000E+00  0.00000000E+00
  0.00000000E+00  0.00000000E+00  0.00000000E+00
  0.00000000E+00  0.00000000E+00  0.00000000E+00
  0.00000000E+00  0.00000000E+00  0.00000000E+00
  0.00000000E+00  0.00000000E+00  0.00000000E+00
  0.00000000E+00  0.00000000E+00  0.00000000E+00
  0.00000000E+00  0.00000000E+00  0.00000000E+00
  0.00000000E+00  0.00000000E+00  0.00000000E+00
  0.00000000E+00  0.00000000E+00  0.00000000E+00
  0.00000000E+00  0.00000000E+00  0.00000000E+00
  0.00000000E+00  0.00000000E+00  0.00000000E+00
  0.00000000E+00  0.00000000E+00  0.00000000E+00
  0.00000000E+00  0.00000000E+00  0.00000000E+00
  0.00000000E+00  0.00000000E+00  0.00000000E+00
  0.00000000E+00  0.00000000E+00  0.00000000E+00
  0.00000000E+00  0.00000000E+00  0.00000000E+00
  0.00000000E+00  0.00000000E+00  0.00000000E+00
  0.00000000E+00  0.00000000E+00  0.00000000E+00
  0.00000000E+00  0.00000000E+00  0.00000000E+00
  0.00000000E+00  0.00000000E+00  0.00000000E+00
  0.00000000E+00  0.00000000E+00  0.00000000E+00
  0.00000000E+00  0.00000000E+00  0.00000000E+00
  0.00000000E+00  0.00000000E+00  0.00000000E+00
  0.00000000E+00  0.00000000E+00  0.00000000E+00
  0.00000000E+00  0.00000000E+00  0.00000000E+00
  0.00000000E+00  0.00000000E+00  0.00000000E+00
  0.00000000E+00  0.00000000E+00  0.00000000E+00
  0.00000000E+00  0.00000000E+00  0.00000000E+00
  0.00000000E+00  0.00000000E+00  0.00000000E+00
  0.00000000E+00  0.00000000E+00  0.00000000E+00
  0.00000000E+00  0.00000000E+00  0.00000000E+00
  0.00000000E+00  0.00000000E+00  0.00000000E+00
  0.00000000E+00  0.00000000E+00  0.00000000E+00
  0.00000000E+00  0.00000000E+00  0.00000000E+00
  0.00000000E+00  0.00000000E+00  0.00000000E+00
  0.00000000E+00  0.00000000E+00  0.00000000E+00
  0.00000000E+00  0.00000000E+00  0.00000000E+00
  0.00000000E+00  0.00000000E+00  0.00000000E+00
  0.00000000E+00  0.00000000E+00  0.00000000E+00
  0.00000000E+00  0.00000000E+00  0.00000000E+00
  0.00000000E+00  0.00000000E+00  0.00000000E+00
  0.00000000E+00  0.00000000E+00  0.00000000E+00
  0.00000000E+00  0.00000000E+00  0.00000000E+00
  0.00000000E+00  0.00000000E+00  0.00000000E+00
  0.00000000E+00  0.00000000E+00  0.00000000E+00
  0.00000000E+00  0.00000000E+00  0.00000000E+00
  0.00000000E+00  0.00000000E+00  0.00000000E+00
  0.00000000E+00  0.00000000E+00  0.00000000E+00
  0.00000000E+00  0.00000000E+00  0.00000000E+00
  0.00000000E+00  0.00000000E+00  0.00000000E+00
  0.00000000E+00  0.00000000E+00  0.00000000E+00
  0.00000000E+00  0.00000000E+00  0.00000000E+00
  0.00000000E+00  0.00000000E+00  0.00000000E+00
  0.00000000E+00  0.00000000E+00  0.00000000E+00
  0.00000000E+00  0.00000000E+00  0.00000000E+00
  0.00000000E+00  0.00000000E+00  0.00000000E+00
  0.00000000E+00  0.00000000E+00  0.00000000E+00
  0.00000000E+00  0.00000000E+00  0.00000000E+00
  0.00000000E+00  0.00000000E+00  0.00000000E+00
  0.00000000E+00  0.00000000E+00  0.00000000E+00
  0.00000000E+00  0.00000000E+00  0.00000000E+00
  0.00000000E+00  0.00000000E+00  0.00000000E+00
  0.00000000E+00  0.00000000E+00  0.00000000E+00
  0.00000000E+00  0.00000000E+00  0.00000000E+00
  0.00000000E+00  0.00000000E+00  0.00000000E+00
  0.00000000E+00  0.00000000E+00  0.00000000E+00
  0.00000000E+00  0.00000000E+00  0.00000000E+00
  0.00000000E+00  0.00000000E+00  0.00000000E+00
  0.00000000E+00  0.00000000E+00  0.00000000E+00
  0.00000000E+00  0.00000000E+00  0.00000000E+00
  0.00000000E+00  0.00000000E+00  0.00000000E+00
  0.00000000E+00  0.00000000E+00  0.00000000E+00
  0.00000000E+00  0.00000000E+00  0.00000000E+00
  0.00000000E+00  0.00000000E+00  0.00000000E+00
  0.00000000E+00  0.00000000E+00  0.00000000E+00
  0.00000000E+00  0.00000000E+00  0.00000000E+00
  0.00000000E+00  0.00000000E+00  0.00000000E+00
  0.00000000E+00  0.00000000E+00  0.00000000E+00
  0.00000000E+00  0.00000000E+00  0.00000000E+00
  0.00000000E+00  0.00000000E+00  0.00000000E+00
  0.00000000E+00  0.00000000E+00  0.00000000E+00
  0.00000000E+00  0.00000000E+00  0.00000000E+00
  0.00000000E+00  0.00000000E+00  0.00000000E+00
  0.00000000E+00  0.00000000E+00  0.00000000E+00
  0.00000000E+00  0.00000000E+00  0.00000000E+00
  0.00000000E+00  0.00000000E+00  0.00000000E+00
  0.00000000E+00  0.00000000E+00  0.00000000E+00
  0.00000000E+00  0.00000000E+00  0.00000000E+00
  0.00000000E+00  0.00000000E+00  0.00000000E+00
  0.00000000E+00  0.00000000E+00  0.00000000E+00
  0.00000000E+00  0.00000000E+00  0.00000000E+00
  0.00000000E+00  0.00000000E+00  0.00000000E+00
  0.00000000E+00  0.00000000E+00  0.00000000E+00
  0.00000000E+00  0.00000000E+00  0.00000000E+00
  0.00000000E+00  0.00000000E+00  0.00000000E+00
  0.00000000E+00  0.00000000E+00  0.00000000E+00
  0.00000000E+00  0.00000000E+00  0.00000000E+00
  0.00000000E+00  0.00000000E+00  0.00000000E+00
  0.00000000E+00  0.00000000E+00  0.00000000E+00
  0.00000000E+00  0.00000000E+00  0.00000000E+00
  0.00000000E+00  0.00000000E+00  0.00000000E+00
  0.00000000E+00  0.00000000E+00  0.00000000E+00
  0.00000000E+00  0.00000000E+00  0.00000000E+00
  0.00000000E+00  0.00000000E+00  0.00000000E+00
  0.00000000E+00  0.00000000E+00  0.00000000E+00
