This file is generated by VASPKIT code
1.0
       12.6406764984         0.0000000000         0.0000000000
        0.0000000000        25.2016296387         0.0000000000
        0.0000000000         1.8348134681        51.7578896671
   Cs   Pb    I
   32   32  104
Cartesian
     3.160169125        13.029522760        12.320776620
     3.160169125        13.641126465        24.906737669
     3.160169125        25.630336828        12.320776620
     3.160169125         1.040311669        24.906737669
     3.160169125         6.423313095         6.027795325
     3.160169125         7.034917633        18.613758687
     3.160169125         7.646521393        31.199721279
     3.160169125        19.635733203        18.613758687
     9.480508127         0.794501062        12.851149334
     9.480508127         1.406105506        25.437112696
     9.480508127        13.395316679        12.851149334
     9.480508127        14.006919715        25.437112696
     9.480508127         6.789106263         6.558168038
     9.480508127         7.400710774        19.144130629
     9.480508127         8.012316036        31.730093221
     9.480508127        20.001526344        19.144130629
     9.480508127         0.579552999         6.462791464
     9.480508127         1.191157367        19.048755983
     9.480508127         1.802761776        31.634717032
     9.480508127        13.791972796        19.048755983
     9.480508127         7.185762298        12.755772374
     9.480508127         7.797366864        25.341736508
     9.480508127        19.786577868        12.755772374
     9.480508127        20.398182434        25.341736508
     3.160169125        13.244469734        18.709134876
     3.160169125        25.233680779         6.123171899
     3.160169125        25.845285304        18.709134876
     3.160169125         1.255260235        31.295097467
     3.160169125         6.638260444        12.416153580
     3.160169125         7.249865358        25.002116943
     3.160169125        19.239074137        12.416153580
     3.160169125        19.850678675        25.002116943
     0.000000000        10.215116794        15.732454396
     0.000000000        10.826720554        28.318416988
     0.000000000        22.815931613        15.732454396
     0.000000000        23.427536124        28.318416988
     0.000000000         3.608907102         9.439472329
     0.000000000         4.220511292        22.025436463
     0.000000000        16.209721921         9.439472329
     0.000000000        16.821324984        22.025436463
     0.000000000         3.914709009        15.732454396
     0.000000000         4.526313144        28.318416988
     0.000000000        16.515524204        15.732454396
     0.000000000        17.127128715        28.318416988
     0.000000000         9.909314511         9.439472329
     0.000000000        10.520919077        22.025436463
     0.000000000        22.510129331         9.439472329
     0.000000000        23.121732394        22.025436463
     6.320338249        10.215116794        15.732454396
     6.320338249        10.826720554        28.318416988
     6.320338249        22.815931613        15.732454396
     6.320338249        23.427536124        28.318416988
     6.320338249         3.608907102         9.439472329
     6.320338249         4.220511292        22.025436463
     6.320338249        16.209721921         9.439472329
     6.320338249        16.821324984        22.025436463
     6.320338249         3.914709009        15.732454396
     6.320338249         4.526313144        28.318416988
     6.320338249        16.515524204        15.732454396
     6.320338249        17.127128715        28.318416988
     6.320338249         9.909314511         9.439472329
     6.320338249        10.520919077        22.025436463
     6.320338249        22.510129331         9.439472329
     6.320338249        23.121732394        22.025436463
     3.160169125         3.653287992        16.101349170
     3.160169125         4.264892260        28.687310218
     3.160169125        16.254102999        16.101349170
     3.160169125        16.865705953        28.687310218
     3.160169125         9.647893306         9.808367103
     3.160169125        10.259496370        22.394331236
     3.160169125        22.248708126         9.808367103
     3.160169125        22.860312691        22.394331236
     9.480508127        10.170734993         9.070578327
     9.480508127        10.782340282        21.656541690
     9.480508127        22.771550563         9.070578327
     9.480508127        23.383153599        21.656541690
     9.480508127         4.176130590        15.363559623
     9.480508127         4.787735155        27.949523757
     9.480508127        16.776945409        15.363559623
     9.480508127        17.388549975        27.949523757
     9.480508127         3.253136013         9.718490717
     9.480508127         3.864740363        22.304454079
     9.480508127        15.853950081         9.718490717
     9.480508127        16.465554619        22.304454079
     9.480508127         9.859345678        16.011472012
     9.480508127        10.470949438        28.597434604
     9.480508127        22.460159746        16.011472012
     9.480508127        23.071764257        28.597434604
     3.160169125        10.570887856        15.453435237
     3.160169125        11.182490919        28.039399371
     3.160169125        23.171701924        15.453435237
     3.160169125        23.783306490        28.039399371
     3.160169125         3.964677843         9.160454713
     3.160169125         4.576282353        21.746417304
     3.160169125        16.565492286         9.160454713
     3.160169125        17.177099801        21.746417304
     0.327709529         9.172532893         6.296429952
     0.327709529         9.784137390        18.882392158
     0.327709529        10.395742761        31.468357834
     0.327709529        21.773347712         6.296429952
     0.327709529        22.384952209        18.882392158
     0.327709529        22.996555328        31.468357834
     0.327709529         3.177927940        12.589411633
     0.327709529         3.789532075        25.175374225
     0.327709529        15.778742572        12.589411633
     0.327709529        16.390347083        25.175374225
    12.312967205         4.039886075         6.289533025
    12.312967205         4.651490586        18.875495617
    12.312967205         5.263095528        31.461459750
    12.312967205        16.640701270         6.289533025
    12.312967205        17.252304279        18.875495617
    12.312967205        17.863908845        31.461459750
    12.312967205        10.646095392        12.582515092
    12.312967205        11.257700654        25.168477683
    12.312967205        23.246909461        12.582515092
    12.312967205        23.858515474        25.168477683
    12.312967205        13.390215506        16.315812938
    12.312967205        14.001820071        28.901777072
    12.312967205         0.789399208        16.315812938
    12.312967205         1.401006684        28.901777072
    12.312967205         6.784005841        10.022831643
    12.312967205         7.395610379        22.608795005
    12.312967205        19.384820660        10.022831643
    12.312967205        19.996428203        22.608795005
     0.327709529         0.433808073         8.856113787
     0.327709529         1.045412455        21.442076378
     0.327709529        13.034623209         8.856113787
     0.327709529        13.646227720        21.442076378
     0.327709529         7.040018028        15.149094311
     0.327709529         7.651621788        27.735056903
     0.327709529        19.640832847        15.149094311
     0.327709529        20.252435856        27.735056903
     6.648047543         4.039886075         6.289533025
     6.648047543         4.651490586        18.875495617
     6.648047543         5.263095528        31.461459750
     6.648047543        16.640701270         6.289533025
     6.648047543        17.252304279        18.875495617
     6.648047543        17.863908845        31.461459750
     6.648047543        10.646095392        12.582515092
     6.648047543        11.257700654        25.168477683
     6.648047543        23.246909461        12.582515092
     6.648047543        23.858515474        25.168477683
     5.992628579         9.172532893         6.296429952
     5.992628579         9.784137390        18.882392158
     5.992628579        10.395742761        31.468357834
     5.992628579        21.773347712         6.296429952
     5.992628579        22.384952209        18.882392158
     5.992628579        22.996555328        31.468357834
     5.992628579         3.177927940        12.589411633
     5.992628579         3.789532075        25.175374225
     5.992628579        15.778742572        12.589411633
     5.992628579        16.390347083        25.175374225
     5.992628579         0.433808073         8.856113787
     5.992628579         1.045412455        21.442076378
     5.992628579        13.034623209         8.856113787
     5.992628579        13.646227720        21.442076378
     5.992628579         7.040018028        15.149094311
     5.992628579         7.651621788        27.735056903
     5.992628579        19.640832847        15.149094311
     5.992628579        20.252435856        27.735056903
     6.648047543        13.390215506        16.315812938
     6.648047543        14.001820071        28.901777072
     6.648047543         0.789399208        16.315812938
     6.648047543         1.401006684        28.901777072
     6.648047543         6.784005841        10.022831643
     6.648047543         7.395610379        22.608795005
     6.648047543        19.384820660        10.022831643
     6.648047543        19.996428203        22.608795005
