This file is generated by VASPKIT code  
   1.00000000000000     
    12.6406764983999995    0.0000000000000000    0.0000000000000000
     0.0000000000000000   25.2016296386999983    0.0000000000000000
     0.0000000000000000    1.8348134680999999   51.7578896671000024
   Cs   Pb   I 
    36    32   104
Direct
  0.2500000000316405  0.4971922093338732  0.2351407203595598
  0.2500000000316405  0.5032536839188597  0.4765295098661878
  0.2500000000316405  0.9972976421473796  0.2319970603873973
  0.2500000000316405  0.0025971876398947  0.4800427982656954
  0.2500000000316405  0.2470979299559252  0.1239604155358236
  0.2500000000316405  0.2497363030492677  0.3558222913194681
  0.2500000000316405  0.2555210924312764  0.5953130904330785
  0.2500000000316405  0.7567189880312565  0.1250587763833542
  0.2500000000316405  0.7503806151617758  0.3556508325890693
  0.2500000000316405  0.7643684493341308  0.5934929783811287
  0.7500000595854175  0.0170959169082090  0.2494670173170848
  0.7500000595854175  0.0223954605359047  0.4975127700723359
  0.7500000595854175  0.5164394522660882  0.2529803057165924
  0.7500000595854175  0.5225008970793340  0.4943691101001733
  0.7500000595854175  0.2553246570776695  0.1360168520979312
  0.7500000595854175  0.2693125508374102  0.3738589680781115
  0.7500000595854175  0.2629741779930332  0.6044510391994259
  0.7500000595854175  0.7641720437801819  0.1341967400459815
  0.7500000595854175  0.7699568629499185  0.3736875093477126
  0.7500000595854175  0.7725951764690415  0.6055494000469565
  0.7500000595854175  0.0301118833987746  0.3700144761107028
  0.7500000595854175  0.5273701827009437  0.1313887042936037
  0.7500000595854175  0.5299268029620867  0.3699753671819384
  0.7500000595854175  0.5455798159819915  0.6037725695204708
  0.7500000595854175  0.2740137360431820  0.2481456563776778
  0.7500000595854175  0.2836322249734640  0.4912242953296373
  0.7500000595854175  0.7798252681916175  0.2473476148381482
  0.7500000595854175  0.7826680543023268  0.4903538274839364
  0.2500000000316405  0.4741132606175958  0.1257372535007894
  0.2500000000316405  0.4897663034630578  0.3595344930896811
  0.2500000000316405  0.4923229534979663  0.5981211187276565
  0.2500000000316405  0.9895812286212473  0.3594953841609166
  0.2500000000316405  0.2370250670040409  0.2391559880795240
  0.2500000000316405  0.2398678680198480  0.4821622156409117
  0.2500000000316405  0.7360608814529098  0.2382855202338232
  0.2500000000316405  0.7456793703686183  0.4813641741013820
  0.9995472239341957  0.3829893472760612  0.3031821825172024
  0.0033094664834124  0.3858694181535137  0.5505236316534415
  0.9998762534999623  0.8838479770241099  0.3029983462931826
  0.0022538733865910  0.8929359576894401  0.5530903003554093
  0.9977461266134091  0.1267571785220182  0.1764195301236506
  0.0001237465000378  0.1358451442810215  0.4265115139784369
  0.9966905335165879  0.6338237478576024  0.1789861988256183
  0.0004527760658042  0.6367037293097345  0.4263276777544170
  0.0004062935917269  0.1315149199800774  0.3032539252503063
  0.9982753664217120  0.1377045075623798  0.5533315066989671
  0.0001992037795098  0.6328787062337945  0.3032535382824163
  0.0001471592172819  0.6428366041564206  0.5504241790554280
 -0.0001471592172819  0.3768565320550378  0.1790856514236322
  0.9998007962204902  0.3868144299910077  0.4262563219892032
  0.0017246335782880  0.8819886584487363  0.1761783237800927
  0.9995937064082733  0.8881781417257312  0.4262559350213132
  0.5004527760499805  0.3829893472760612  0.3031821825172024
  0.4966905335007638  0.3858694181535137  0.5505236316534415
  0.5001237464842139  0.8838479770241099  0.3029983462931826
  0.4977461265975853  0.8929359576894401  0.5530903003554093
  0.5022538733707671  0.1267571785220182  0.1764195301236506
  0.4998762534841384  0.1358451442810215  0.4265115139784369
  0.5033094664675883  0.6338237478576024  0.1789861988256183
  0.4995472239183720  0.6367037293097345  0.4263276777544170
  0.4995937063924492  0.1315149199800774  0.3032539252503063
  0.5017246335624642  0.1377045075623798  0.5533315066989671
  0.4998007962046664  0.6328787062337945  0.3032535382824163
  0.4998528407668943  0.6428366041564206  0.5504241790554280
  0.5001471592014581  0.3768565320550378  0.1790856514236322
  0.5001992037636860  0.3868144299910077  0.4262563219892032
  0.4982753664058882  0.8819886584487363  0.1761783237800927
  0.5004062935759029  0.8881781417257312  0.4262559350213132
  0.2500000000316405  0.1209942333504649  0.3139157179498850
  0.2500000000316405  0.1308723441981458  0.5505351999541319
  0.2500000000316405  0.6204104901653320  0.3138477379241354
  0.2500000000316405  0.6276538342054454  0.5586087299526471
  0.2500000000316405  0.3695313160874569  0.1904724751098538
  0.2500000000316405  0.3729760288575214  0.4356356426382129
  0.2500000000316405  0.8622840519547296  0.1892787497345998
  0.2500000000316405  0.8751850893354435  0.4349633757356029
  0.7500000595854175  0.3920392424212705  0.1709010856108134
  0.7500000595854175  0.3992826460580493  0.4156621223668037
  0.7500000595854175  0.8888207771082219  0.1789746156093287
  0.7500000595854175  0.8986988283539368  0.4155941423410541
  0.7500000595854175  0.1445080468893586  0.2945464845360166
  0.7500000595854175  0.1574091438428850  0.5402310956407398
  0.7500000595854175  0.6467170775676159  0.2938742176334066
  0.7500000595854175  0.6501618201505117  0.5390373702654858
  0.7500000595854175  0.1215450118840079  0.1879389228726263
  0.7500000595854175  0.1164831511376469  0.4323579357989100
  0.7500000595854175  0.6145140879029702  0.1902548741876091
  0.7500000595854175  0.6163540146470933  0.4321200054102432
  0.7500000595854175  0.3632434672691295  0.3100984417451836
  0.7500000595854175  0.3759510875184374  0.5530395617426808
  0.7500000595854175  0.8645280287680898  0.3104937037702480
  0.7500000595854175  0.8737650411193223  0.5490356919658860
  0.2500000000316405  0.4033391513654370  0.2973898250494971
  0.2500000000316405  0.4051789886959987  0.5392549711877307
  0.2500000000316405  0.9032099478157214  0.2971518946608303
  0.2500000000316405  0.8981480870944709  0.5415709225027135
  0.2500000000316405  0.1459280504124913  0.1804741385131740
  0.2500000000316405  0.1551650627254468  0.4190161266894851
  0.2500000000316405  0.6437419890936983  0.1764702687363792
  0.2500000000316405  0.6564496987433935  0.4194113887145496
  0.0334590600552151  0.3634498583879638  0.1198790754218742
  0.0319925377569992  0.3607903002481092  0.3652076973653366
  0.0312717834421648  0.3681122475451102  0.6096641954373030
  0.0117643996739149  0.8525509826815407  0.1200731335773105
  0.0316619243987782  0.8610197971720995  0.3653392547321150
  0.0145968297826311  0.8577575347581972  0.6095168003494094
  0.0298294725323914  0.1090917071751229  0.2441501302265941
  0.0290528550171010  0.1138696019040033  0.4861848696492996
  0.0319732442534068  0.6081153501899870  0.2439880714545226
  0.0314290389975270  0.6134393524883183  0.4869446126510526
  0.9854031888556155  0.1619355269476113  0.1199930599222101
  0.9683380942394685  0.1586733241063509  0.3641705459543854
  0.9882356189643314  0.1671421386242019  0.6094367043402295
  0.9687282351960816  0.6515808886400155  0.1198456648343164
  0.9680074808812472  0.6589027763506894  0.3643021033211638
  0.9665409585830314  0.6562432182381338  0.6096307624956657
  0.9685709796407194  0.4062537539366486  0.2425652029317275
  0.9680267743848397  0.4115777860228783  0.4855217590052105
  0.9709471636211455  0.9058235342809448  0.2433249459334806
  0.9701705461058551  0.9106014364975742  0.4853597002331390
  0.9667688823337400  0.5073856552200467  0.3163696971078035
  0.9772632633147346  0.5131951209626657  0.5592710854769621
  0.9678088946122047  0.0072611619340806  0.3167730733193977
  0.9613758877338126  0.0141708602954622  0.5577654657672590
  0.9724597579985774  0.2541882371311956  0.1936100045115078
  0.9668696752083131  0.2609491143889524  0.4380403584907441
  0.9727295583948464  0.7553650093444323  0.1938369954619430
  0.9677119467945766  0.7603266339771229  0.4380538916835224
  0.0386241309044339  0.0055223238640096  0.1717443796080808
  0.0321911240260419  0.0124318988219100  0.4127367273477759
  0.0227367553235118  0.5064980152356262  0.1702387598983775
  0.0332311363045064  0.5123074810191582  0.4131401035593701
  0.0322880718436698  0.2593665618350651  0.2914559387762179
  0.0272704602434000  0.2643280970805417  0.5356728201208371
  0.0331303434299333  0.7587440218239128  0.2914694719689962
  0.0275402606396691  0.7655048394941133  0.5358998110712723
  0.5145968111760321  0.1619355269476113  0.1199930599222101
  0.5316619057921791  0.1586733241063509  0.3641705459543854
  0.5117643810673161  0.1671421386242019  0.6094367043402295
  0.5312717648355659  0.6515808886400155  0.1198456648343164
  0.5319925191504004  0.6589027763506894  0.3643021033211638
  0.5334590414486162  0.6562432182381338  0.6096307624956657
  0.5314290203909282  0.4062537539366486  0.2425652029317275
  0.5319732256468078  0.4115777860228783  0.4855217590052105
  0.5290528364105020  0.9058235342809448  0.2433249459334806
  0.5298294539257925  0.9106014364975742  0.4853597002331390
  0.4665409287744989  0.3634498583879638  0.1198790754218742
  0.4680074510727148  0.3607903002481092  0.3652076973653366
  0.4687282053875492  0.3681122475451102  0.6096641954373030
  0.4882355891557991  0.8525509826815407  0.1200731335773105
  0.4683380644309358  0.8610197971720995  0.3653392547321150
  0.4854031590470829  0.8577575347581972  0.6095168003494094
  0.4701705162973226  0.1090917071751229  0.2441501302265941
  0.4709471338126129  0.1138696019040033  0.4861848696492996
  0.4680267445763071  0.6081153501899870  0.2439880714545226
  0.4685709498321870  0.6134393524883183  0.4869446126510526
  0.4613758579252801  0.0055223238640096  0.1717443796080808
  0.4678088648036720  0.0124318988219100  0.4127367273477759
  0.4772632335062022  0.5064980152356262  0.1702387598983775
  0.4667688525252076  0.5123074810191582  0.4131401035593701
  0.4677119169860442  0.2593665618350651  0.2914559387762179
  0.4727295285863140  0.2643280970805417  0.5356728201208371
  0.4668696453997807  0.7587440218239128  0.2914694719689962
  0.4724597281900449  0.7655048394941133  0.5358998110712723
  0.5332311176979075  0.5073856552200467  0.3163696971078035
  0.5227367367169130  0.5131951209626657  0.5592710854769621
  0.5321911054194429  0.0072611619340806  0.3167730733193977
  0.5386241122978350  0.0141708602954622  0.5577654657672590
  0.5275402420330702  0.2541882371311956  0.1936100045115078
  0.5331303248233344  0.2609491143889524  0.4380403584907441
  0.5272704416368011  0.7553650093444323  0.1938369954619430
  0.5322880532370710  0.7603266339771229  0.4380538916835224
 
  0.00000000E+00  0.00000000E+00  0.00000000E+00
  0.00000000E+00  0.00000000E+00  0.00000000E+00
  0.00000000E+00  0.00000000E+00  0.00000000E+00
  0.00000000E+00  0.00000000E+00  0.00000000E+00
  0.00000000E+00  0.00000000E+00  0.00000000E+00
  0.00000000E+00  0.00000000E+00  0.00000000E+00
  0.00000000E+00  0.00000000E+00  0.00000000E+00
  0.00000000E+00  0.00000000E+00  0.00000000E+00
  0.00000000E+00  0.00000000E+00  0.00000000E+00
  0.00000000E+00  0.00000000E+00  0.00000000E+00
  0.00000000E+00  0.00000000E+00  0.00000000E+00
  0.00000000E+00  0.00000000E+00  0.00000000E+00
  0.00000000E+00  0.00000000E+00  0.00000000E+00
  0.00000000E+00  0.00000000E+00  0.00000000E+00
  0.00000000E+00  0.00000000E+00  0.00000000E+00
  0.00000000E+00  0.00000000E+00  0.00000000E+00
  0.00000000E+00  0.00000000E+00  0.00000000E+00
  0.00000000E+00  0.00000000E+00  0.00000000E+00
  0.00000000E+00  0.00000000E+00  0.00000000E+00
  0.00000000E+00  0.00000000E+00  0.00000000E+00
  0.00000000E+00  0.00000000E+00  0.00000000E+00
  0.00000000E+00  0.00000000E+00  0.00000000E+00
  0.00000000E+00  0.00000000E+00  0.00000000E+00
  0.00000000E+00  0.00000000E+00  0.00000000E+00
  0.00000000E+00  0.00000000E+00  0.00000000E+00
  0.00000000E+00  0.00000000E+00  0.00000000E+00
  0.00000000E+00  0.00000000E+00  0.00000000E+00
  0.00000000E+00  0.00000000E+00  0.00000000E+00
  0.00000000E+00  0.00000000E+00  0.00000000E+00
  0.00000000E+00  0.00000000E+00  0.00000000E+00
  0.00000000E+00  0.00000000E+00  0.00000000E+00
  0.00000000E+00  0.00000000E+00  0.00000000E+00
  0.00000000E+00  0.00000000E+00  0.00000000E+00
  0.00000000E+00  0.00000000E+00  0.00000000E+00
  0.00000000E+00  0.00000000E+00  0.00000000E+00
  0.00000000E+00  0.00000000E+00  0.00000000E+00
  0.00000000E+00  0.00000000E+00  0.00000000E+00
  0.00000000E+00  0.00000000E+00  0.00000000E+00
  0.00000000E+00  0.00000000E+00  0.00000000E+00
  0.00000000E+00  0.00000000E+00  0.00000000E+00
  0.00000000E+00  0.00000000E+00  0.00000000E+00
  0.00000000E+00  0.00000000E+00  0.00000000E+00
  0.00000000E+00  0.00000000E+00  0.00000000E+00
  0.00000000E+00  0.00000000E+00  0.00000000E+00
  0.00000000E+00  0.00000000E+00  0.00000000E+00
  0.00000000E+00  0.00000000E+00  0.00000000E+00
  0.00000000E+00  0.00000000E+00  0.00000000E+00
  0.00000000E+00  0.00000000E+00  0.00000000E+00
  0.00000000E+00  0.00000000E+00  0.00000000E+00
  0.00000000E+00  0.00000000E+00  0.00000000E+00
  0.00000000E+00  0.00000000E+00  0.00000000E+00
  0.00000000E+00  0.00000000E+00  0.00000000E+00
  0.00000000E+00  0.00000000E+00  0.00000000E+00
  0.00000000E+00  0.00000000E+00  0.00000000E+00
  0.00000000E+00  0.00000000E+00  0.00000000E+00
  0.00000000E+00  0.00000000E+00  0.00000000E+00
  0.00000000E+00  0.00000000E+00  0.00000000E+00
  0.00000000E+00  0.00000000E+00  0.00000000E+00
  0.00000000E+00  0.00000000E+00  0.00000000E+00
  0.00000000E+00  0.00000000E+00  0.00000000E+00
  0.00000000E+00  0.00000000E+00  0.00000000E+00
  0.00000000E+00  0.00000000E+00  0.00000000E+00
  0.00000000E+00  0.00000000E+00  0.00000000E+00
  0.00000000E+00  0.00000000E+00  0.00000000E+00
  0.00000000E+00  0.00000000E+00  0.00000000E+00
  0.00000000E+00  0.00000000E+00  0.00000000E+00
  0.00000000E+00  0.00000000E+00  0.00000000E+00
  0.00000000E+00  0.00000000E+00  0.00000000E+00
  0.00000000E+00  0.00000000E+00  0.00000000E+00
  0.00000000E+00  0.00000000E+00  0.00000000E+00
  0.00000000E+00  0.00000000E+00  0.00000000E+00
  0.00000000E+00  0.00000000E+00  0.00000000E+00
  0.00000000E+00  0.00000000E+00  0.00000000E+00
  0.00000000E+00  0.00000000E+00  0.00000000E+00
  0.00000000E+00  0.00000000E+00  0.00000000E+00
  0.00000000E+00  0.00000000E+00  0.00000000E+00
  0.00000000E+00  0.00000000E+00  0.00000000E+00
  0.00000000E+00  0.00000000E+00  0.00000000E+00
  0.00000000E+00  0.00000000E+00  0.00000000E+00
  0.00000000E+00  0.00000000E+00  0.00000000E+00
  0.00000000E+00  0.00000000E+00  0.00000000E+00
  0.00000000E+00  0.00000000E+00  0.00000000E+00
  0.00000000E+00  0.00000000E+00  0.00000000E+00
  0.00000000E+00  0.00000000E+00  0.00000000E+00
  0.00000000E+00  0.00000000E+00  0.00000000E+00
  0.00000000E+00  0.00000000E+00  0.00000000E+00
  0.00000000E+00  0.00000000E+00  0.00000000E+00
  0.00000000E+00  0.00000000E+00  0.00000000E+00
  0.00000000E+00  0.00000000E+00  0.00000000E+00
  0.00000000E+00  0.00000000E+00  0.00000000E+00
  0.00000000E+00  0.00000000E+00  0.00000000E+00
  0.00000000E+00  0.00000000E+00  0.00000000E+00
  0.00000000E+00  0.00000000E+00  0.00000000E+00
  0.00000000E+00  0.00000000E+00  0.00000000E+00
  0.00000000E+00  0.00000000E+00  0.00000000E+00
  0.00000000E+00  0.00000000E+00  0.00000000E+00
  0.00000000E+00  0.00000000E+00  0.00000000E+00
  0.00000000E+00  0.00000000E+00  0.00000000E+00
  0.00000000E+00  0.00000000E+00  0.00000000E+00
  0.00000000E+00  0.00000000E+00  0.00000000E+00
  0.00000000E+00  0.00000000E+00  0.00000000E+00
  0.00000000E+00  0.00000000E+00  0.00000000E+00
  0.00000000E+00  0.00000000E+00  0.00000000E+00
  0.00000000E+00  0.00000000E+00  0.00000000E+00
  0.00000000E+00  0.00000000E+00  0.00000000E+00
  0.00000000E+00  0.00000000E+00  0.00000000E+00
  0.00000000E+00  0.00000000E+00  0.00000000E+00
  0.00000000E+00  0.00000000E+00  0.00000000E+00
  0.00000000E+00  0.00000000E+00  0.00000000E+00
  0.00000000E+00  0.00000000E+00  0.00000000E+00
  0.00000000E+00  0.00000000E+00  0.00000000E+00
  0.00000000E+00  0.00000000E+00  0.00000000E+00
  0.00000000E+00  0.00000000E+00  0.00000000E+00
  0.00000000E+00  0.00000000E+00  0.00000000E+00
  0.00000000E+00  0.00000000E+00  0.00000000E+00
  0.00000000E+00  0.00000000E+00  0.00000000E+00
  0.00000000E+00  0.00000000E+00  0.00000000E+00
  0.00000000E+00  0.00000000E+00  0.00000000E+00
  0.00000000E+00  0.00000000E+00  0.00000000E+00
  0.00000000E+00  0.00000000E+00  0.00000000E+00
  0.00000000E+00  0.00000000E+00  0.00000000E+00
  0.00000000E+00  0.00000000E+00  0.00000000E+00
  0.00000000E+00  0.00000000E+00  0.00000000E+00
  0.00000000E+00  0.00000000E+00  0.00000000E+00
  0.00000000E+00  0.00000000E+00  0.00000000E+00
  0.00000000E+00  0.00000000E+00  0.00000000E+00
  0.00000000E+00  0.00000000E+00  0.00000000E+00
  0.00000000E+00  0.00000000E+00  0.00000000E+00
  0.00000000E+00  0.00000000E+00  0.00000000E+00
  0.00000000E+00  0.00000000E+00  0.00000000E+00
  0.00000000E+00  0.00000000E+00  0.00000000E+00
  0.00000000E+00  0.00000000E+00  0.00000000E+00
  0.00000000E+00  0.00000000E+00  0.00000000E+00
  0.00000000E+00  0.00000000E+00  0.00000000E+00
  0.00000000E+00  0.00000000E+00  0.00000000E+00
  0.00000000E+00  0.00000000E+00  0.00000000E+00
  0.00000000E+00  0.00000000E+00  0.00000000E+00
  0.00000000E+00  0.00000000E+00  0.00000000E+00
  0.00000000E+00  0.00000000E+00  0.00000000E+00
  0.00000000E+00  0.00000000E+00  0.00000000E+00
  0.00000000E+00  0.00000000E+00  0.00000000E+00
  0.00000000E+00  0.00000000E+00  0.00000000E+00
  0.00000000E+00  0.00000000E+00  0.00000000E+00
  0.00000000E+00  0.00000000E+00  0.00000000E+00
  0.00000000E+00  0.00000000E+00  0.00000000E+00
  0.00000000E+00  0.00000000E+00  0.00000000E+00
  0.00000000E+00  0.00000000E+00  0.00000000E+00
  0.00000000E+00  0.00000000E+00  0.00000000E+00
  0.00000000E+00  0.00000000E+00  0.00000000E+00
  0.00000000E+00  0.00000000E+00  0.00000000E+00
  0.00000000E+00  0.00000000E+00  0.00000000E+00
  0.00000000E+00  0.00000000E+00  0.00000000E+00
  0.00000000E+00  0.00000000E+00  0.00000000E+00
  0.00000000E+00  0.00000000E+00  0.00000000E+00
  0.00000000E+00  0.00000000E+00  0.00000000E+00
  0.00000000E+00  0.00000000E+00  0.00000000E+00
  0.00000000E+00  0.00000000E+00  0.00000000E+00
  0.00000000E+00  0.00000000E+00  0.00000000E+00
  0.00000000E+00  0.00000000E+00  0.00000000E+00
  0.00000000E+00  0.00000000E+00  0.00000000E+00
  0.00000000E+00  0.00000000E+00  0.00000000E+00
  0.00000000E+00  0.00000000E+00  0.00000000E+00
  0.00000000E+00  0.00000000E+00  0.00000000E+00
  0.00000000E+00  0.00000000E+00  0.00000000E+00
  0.00000000E+00  0.00000000E+00  0.00000000E+00
  0.00000000E+00  0.00000000E+00  0.00000000E+00
  0.00000000E+00  0.00000000E+00  0.00000000E+00
  0.00000000E+00  0.00000000E+00  0.00000000E+00
  0.00000000E+00  0.00000000E+00  0.00000000E+00
  0.00000000E+00  0.00000000E+00  0.00000000E+00
  0.00000000E+00  0.00000000E+00  0.00000000E+00
  0.00000000E+00  0.00000000E+00  0.00000000E+00
